
     Program PWSCF v.7.3.1 starts on 21Jul2026 at 18:14:23 

     This program is part of the open-source Quantum ESPRESSO suite
     for quantum simulation of materials; please cite
         "P. Giannozzi et al., J. Phys.:Condens. Matter 21 395502 (2009);
         "P. Giannozzi et al., J. Phys.:Condens. Matter 29 465901 (2017);
         "P. Giannozzi et al., J. Chem. Phys. 152 154105 (2020);
          URL http://www.quantum-espresso.org", 
     in publications or presentations arising from this work. More details at
     http://www.quantum-espresso.org/quote

     Parallel version (MPI & OpenMP), running on       1 processor cores
     Number of MPI processes:                 1
     Threads/MPI process:                     1

     MPI processes distributed on     1 nodes
     41418 MiB available memory on the printing compute node when the environment starts
 
     Reading input from relax.in
Warning: card &CELL ignored
Warning: card / ignored
Warning: card &FCP ignored
Warning: card / ignored
Warning: card &RISM ignored
Warning: card / ignored

     Current dimensions of program PWSCF are:
     Max number of different atomic species (ntypx) = 10
     Max number of k-points (npk) =  40000
     Max angular momentum in pseudopotentials (lmaxx) =  4
     file C.pbe-n-kjpaw_psl.1.0.0.UPF: wavefunction(s)  2S 2P renormalized

     gamma-point specific algorithms are used
 
     Subspace diagonalization in iterative solution of the eigenvalue problem:
     a serial algorithm will be used

 
     G-vector sticks info
     --------------------
     sticks:   dense  smooth     PW     G-vecs:    dense   smooth      PW
     Sum        9573    4781   1201              2123491   750579   93921
 
     Using Slab Decomposition
 


     bravais-lattice index     =            0
     lattice parameter (alat)  =      15.8284  a.u.
     unit-cell volume          =   11958.4964 (a.u.)^3
     number of atoms/cell      =           65
     number of atomic types    =            5
     number of electrons       =       545.00
     number of Kohn-Sham states=          328
     kinetic-energy cutoff     =      60.0000  Ry
     charge density cutoff     =     480.0000  Ry
     scf convergence threshold =      1.0E-07
     mixing beta               =       0.3000
     number of iterations used =            8  plain     mixing
     energy convergence thresh.=      1.0E-04
     force convergence thresh. =      1.0E-02
     Exchange-correlation= PBE
                           (   1   4   3   4   0   0   0)
     nstep                     =           80


     GPU acceleration is ACTIVE.  1 visible GPUs per MPI rank


     celldm(1)=  15.828379  celldm(2)=   0.000000  celldm(3)=   0.000000
     celldm(4)=   0.000000  celldm(5)=   0.000000  celldm(6)=   0.000000

     crystal axes: (cart. coord. in units of alat)
               a(1) = (   1.000000   0.000000   0.000000 )  
               a(2) = (   0.000556   0.999437   0.000000 )  
               a(3) = (   0.001922  -0.002259   3.017254 )  

     reciprocal axes: (cart. coord. in units 2 pi/alat)
               b(1) = (  1.000000 -0.000557 -0.000637 )  
               b(2) = ( -0.000000  1.000564  0.000749 )  
               b(3) = (  0.000000  0.000000  0.331427 )  


     PseudoPot. # 1 for Ti read from file:
     /home/jonglee69/software/qe_pseudo/active/ti_pbe_v1.4.uspp.F.UPF
     MD5 check sum: 88a00a6731bd790ddea75d31a80cb452
     Pseudo is Ultrasoft + core correction, Zval = 12.0
     Generated by new atomic code, or converted to UPF format
     Using radial grid of  851 points,  6 beta functions with: 
                l(1) =   0
                l(2) =   0
                l(3) =   1
                l(4) =   1
                l(5) =   2
                l(6) =   2
     Q(r) pseudized with  6 coefficients,  rinner =    1.000   1.000   1.000
                                                       1.000   1.000

     PseudoPot. # 2 for V  read from file:
     /home/jonglee69/software/qe_pseudo/active/v_pbe_v1.4.uspp.F.UPF
     MD5 check sum: 22b79981416ebb76fdaf5b1b8640f6fb
     Pseudo is Ultrasoft + core correction, Zval = 13.0
     Generated by new atomic code, or converted to UPF format
     Using radial grid of  853 points,  6 beta functions with: 
                l(1) =   0
                l(2) =   0
                l(3) =   1
                l(4) =   1
                l(5) =   2
                l(6) =   2
     Q(r) pseudized with  8 coefficients,  rinner =    1.100   1.100   1.100
                                                       1.100   1.100

     PseudoPot. # 3 for Cr read from file:
     /home/jonglee69/software/qe_pseudo/active/cr_pbe_v1.5.uspp.F.UPF
     MD5 check sum: 0d52af634a40206e4dee301ad30da4bf
     Pseudo is Ultrasoft + core correction, Zval = 14.0
     Generated by new atomic code, or converted to UPF format
     Using radial grid of  857 points,  6 beta functions with: 
                l(1) =   0
                l(2) =   0
                l(3) =   1
                l(4) =   1
                l(5) =   2
                l(6) =   2
     Q(r) pseudized with  8 coefficients,  rinner =    0.950   0.950   0.950
                                                       0.950   0.950

     PseudoPot. # 4 for C  read from file:
     /home/jonglee69/software/qe_pseudo/active/C.pbe-n-kjpaw_psl.1.0.0.UPF
     MD5 check sum: 5d2aebdfa2cae82b50a7e79e9516da0f
     Pseudo is Projector augmented-wave + core cor, Zval =  4.0
     Generated using "atomic" code by A. Dal Corso  v.5.1
     Shape of augmentation charge: PSQ
     Using radial grid of 1073 points,  4 beta functions with: 
                l(1) =   0
                l(2) =   0
                l(3) =   1
                l(4) =   1
     Q(r) pseudized with 0 coefficients 


     PseudoPot. # 5 for H  read from file:
     /home/jonglee69/software/qe_pseudo/active/H.pbe-rrkjus_psl.1.0.0.UPF
     MD5 check sum: f52b6d4d1c606e5624b1dc7b2218f220
     Pseudo is Ultrasoft, Zval =  1.0
     Generated using "atomic" code by A. Dal Corso  v.5.1
     Using radial grid of  929 points,  2 beta functions with: 
                l(1) =   0
                l(2) =   0
     Q(r) pseudized with 0 coefficients 


     atomic species   valence    mass     pseudopotential
     Ti               12.00    47.86700     Ti( 1.00)
     V                13.00    50.94150     V ( 1.00)
     Cr               14.00    51.99610     Cr( 1.00)
     C                 4.00    12.01100     C ( 1.00)
     H                 1.00     1.00800     H ( 1.00)

     No symmetry found



   Cartesian axes

     site n.     atom                  positions (alat units)
         1        Ti     tau(   1) = (   1.0009539   0.0045314   1.8851431  )
         2        Ti     tau(   2) = (   0.0034782   0.9983452   1.3825601  )
         3        Ti     tau(   3) = (   0.2504902   0.4997648   1.6315125  )
         4        Ti     tau(   4) = (   1.0004162   0.2502092   1.1308999  )
         5        Ti     tau(   5) = (   0.9998797   0.7484124   1.1333933  )
         6        Ti     tau(   6) = (   0.5034692   0.7509349   1.1331335  )
         7        Ti     tau(   7) = (   1.0001473   0.2481259   1.6338953  )
         8        Ti     tau(   8) = (   1.0007867   0.7496476   1.6361351  )
         9        Ti     tau(   9) = (   0.5020780   0.7500930   1.6363095  )
        10        Ti     tau(  10) = (   0.2527517   0.7470243   1.8876063  )
        11        Ti     tau(  11) = (   0.7493253   0.7480154   1.8854848  )
        12        V      tau(  12) = (   0.9987371   0.4919497   1.8716980  )
        13        V      tau(  13) = (   0.5021948   0.4928169   1.8693526  )
        14        V      tau(  14) = (   0.4949023   0.5028578   1.3846082  )
        15        V      tau(  15) = (   0.2612204   0.0062110   1.1348458  )
        16        V      tau(  16) = (   0.2569530   0.4933049   1.1330525  )
        17        V      tau(  17) = (   0.2577535   0.9971921   1.6315786  )
        18        V      tau(  18) = (   0.7513188   0.5018384   1.6322157  )
        19        V      tau(  19) = (   0.5022071   0.2447259   1.6270993  )
        20        V      tau(  20) = (   0.2512965   0.7487352   1.3816098  )
        21        V      tau(  21) = (   0.7540434   0.7335087   1.3813327  )
        22        Cr     tau(  22) = (   0.5012027   0.0083053   1.8745763  )
        23        Cr     tau(  23) = (   0.0140774   0.4988843   1.3753030  )
        24        Cr     tau(  24) = (   0.4976303   0.9858838   1.3922529  )
        25        Cr     tau(  25) = (   0.7402072   0.0132094   1.1574584  )
        26        Cr     tau(  26) = (   0.7402975   0.4842830   1.1150280  )
        27        Cr     tau(  27) = (   0.7448816   0.9933721   1.6267308  )
        28        Cr     tau(  28) = (   0.5032222   0.2477881   1.1633736  )
        29        Cr     tau(  29) = (   0.2584170   0.2480760   1.8610776  )
        30        Cr     tau(  30) = (   0.7428985   0.2471852   1.8575978  )
        31        Cr     tau(  31) = (   0.2394291   0.2525026   1.3872068  )
        32        Cr     tau(  32) = (   0.7639965   0.2684841   1.3914711  )
        33        C      tau(  33) = (   0.9989409   0.0014776   1.1332587  )
        34        C      tau(  34) = (   0.9991086   0.4976511   1.1335931  )
        35        C      tau(  35) = (   0.5042228   0.0078878   1.1358354  )
        36        C      tau(  36) = (   0.5022840   0.4915266   1.1330039  )
        37        C      tau(  37) = (   1.0001941  -0.0007398   1.6408768  )
        38        C      tau(  38) = (   0.9985506   0.4986514   1.6390583  )
        39        C      tau(  39) = (   0.5019985   0.0003079   1.6303902  )
        40        C      tau(  40) = (   0.5035808   0.4947467   1.6365166  )
        41        C      tau(  41) = (   0.2572328   0.0075619   1.8935191  )
        42        C      tau(  42) = (   0.2516798   0.4897854   1.8955612  )
        43        C      tau(  43) = (   0.7441136   0.0080286   1.8909630  )
        44        C      tau(  44) = (   0.7498340   0.4902980   1.8904731  )
        45        C      tau(  45) = (   0.2569398   0.0020909   1.3837513  )
        46        C      tau(  46) = (   0.2516522   0.4976480   1.3809888  )
        47        C      tau(  47) = (   0.7451983   0.0022457   1.3849398  )
        48        C      tau(  48) = (   0.7555270   0.4962905   1.3811154  )
        49        C      tau(  49) = (   1.0000921   0.2533629   1.8935258  )
        50        C      tau(  50) = (   1.0002659   0.7435428   1.9033624  )
        51        C      tau(  51) = (   0.5013987   0.2476377   1.8859044  )
        52        C      tau(  52) = (   0.5013446   0.7450374   1.8964605  )
        53        C      tau(  53) = (   0.0017630   0.2559546   1.3841847  )
        54        C      tau(  54) = (   0.0023961   0.7435240   1.3827774  )
        55        C      tau(  55) = (   0.5036096   0.2458799   1.3861030  )
        56        C      tau(  56) = (   0.5028369   0.7471716   1.3839495  )
        57        C      tau(  57) = (   0.2592298   0.2490482   1.1332349  )
        58        C      tau(  58) = (   0.2526798   0.7492058   1.1360606  )
        59        C      tau(  59) = (   0.7426340   0.2484466   1.1337335  )
        60        C      tau(  60) = (   0.7504967   0.7475905   1.1372594  )
        61        C      tau(  61) = (   0.2544586   0.2459083   1.6357217  )
        62        C      tau(  62) = (   0.2513275   0.7516121   1.6398416  )
        63        C      tau(  63) = (   0.7478472   0.2478746   1.6334441  )
        64        C      tau(  64) = (   0.7517446   0.7478580   1.6372322  )
        65        H      tau(  65) = (   0.4994973   0.0057074   2.0676758  )

     number of k points=     1  Marzari-Vanderbilt smearing, width (Ry)=  0.0200
                       cart. coord. in units 2pi/alat
        k(    1) = (   0.0000000   0.0000000   0.0000000), wk =   2.0000000

     Dense  grid:  1061746 G-vectors     FFT dimensions: ( 120, 120, 360)

     Smooth grid:   375290 G-vectors     FFT dimensions: (  80,  80, 240)

     Estimated max dynamical RAM per process >       6.16 GB

     Check: negative core charge=   -0.000005

     Initial potential from superposition of free atoms

     starting charge     522.9857, renormalised to     545.0000

     negative rho (up, down):  3.253E-02 0.000E+00
     Starting wfcs are  449 randomized atomic wfcs
     Checking if some PAW data can be deallocated... 

     total cpu time spent up to now is       13.2 secs

     Self-consistent Calculation

     iteration #  1     ecut=    60.00 Ry     beta= 0.30
     Davidson diagonalization with overlap
     ethr =  1.00E-02,  avg # of iterations =  2.0

     negative rho (up, down):  4.497E-02 0.000E+00

     total cpu time spent up to now is       31.8 secs

     total energy              =   -5223.73396450 Ry
     estimated scf accuracy    <     173.10311234 Ry

     iteration #  2     ecut=    60.00 Ry     beta= 0.30
     Davidson diagonalization with overlap
     ethr =  1.00E-02,  avg # of iterations =  7.0

     negative rho (up, down):  3.804E-02 0.000E+00

     total cpu time spent up to now is       44.6 secs

     total energy              =   -5160.39089981 Ry
     estimated scf accuracy    <    2106.53691731 Ry

     iteration #  3     ecut=    60.00 Ry     beta= 0.30
     Davidson diagonalization with overlap
     ethr =  1.00E-02,  avg # of iterations =  7.0

     negative rho (up, down):  3.147E-02 0.000E+00

     total cpu time spent up to now is       56.2 secs

     total energy              =   -5211.45649107 Ry
     estimated scf accuracy    <    3748.90805055 Ry

     iteration #  4     ecut=    60.00 Ry     beta= 0.30
     Davidson diagonalization with overlap
     ethr =  1.00E-02,  avg # of iterations =  7.0

     negative rho (up, down):  3.060E-02 0.000E+00

     total cpu time spent up to now is       67.1 secs

     total energy              =   -5281.49325139 Ry
     estimated scf accuracy    <     116.56635577 Ry

     iteration #  5     ecut=    60.00 Ry     beta= 0.30
     Davidson diagonalization with overlap
     ethr =  1.00E-02,  avg # of iterations =  1.0

     negative rho (up, down):  3.129E-02 0.000E+00

     total cpu time spent up to now is       73.7 secs

     total energy              =   -5285.24589547 Ry
     estimated scf accuracy    <      20.20743105 Ry

     iteration #  6     ecut=    60.00 Ry     beta= 0.30
     Davidson diagonalization with overlap
     ethr =  3.71E-03,  avg # of iterations =  2.0

     negative rho (up, down):  3.267E-02 0.000E+00

     total cpu time spent up to now is       80.8 secs

     total energy              =   -5285.10945136 Ry
     estimated scf accuracy    <      13.91880636 Ry

     iteration #  7     ecut=    60.00 Ry     beta= 0.30
     Davidson diagonalization with overlap
     ethr =  2.55E-03,  avg # of iterations =  2.0

     negative rho (up, down):  3.411E-02 0.000E+00

     total cpu time spent up to now is       87.5 secs

     total energy              =   -5284.23491252 Ry
     estimated scf accuracy    <      11.72154943 Ry

     iteration #  8     ecut=    60.00 Ry     beta= 0.30
     Davidson diagonalization with overlap
     ethr =  2.15E-03,  avg # of iterations =  3.0

     negative rho (up, down):  3.516E-02 0.000E+00

     total cpu time spent up to now is       95.3 secs

     total energy              =   -5283.67584371 Ry
     estimated scf accuracy    <      16.87299874 Ry

     iteration #  9     ecut=    60.00 Ry     beta= 0.30
     Davidson diagonalization with overlap
     ethr =  2.15E-03,  avg # of iterations =  2.0

     negative rho (up, down):  3.552E-02 0.000E+00

     total cpu time spent up to now is      102.7 secs

     total energy              =   -5284.03424863 Ry
     estimated scf accuracy    <      11.75072430 Ry

     iteration # 10     ecut=    60.00 Ry     beta= 0.30
     Davidson diagonalization with overlap
     ethr =  2.15E-03,  avg # of iterations =  2.0

     negative rho (up, down):  3.621E-02 0.000E+00

     total cpu time spent up to now is      110.2 secs

     total energy              =   -5284.42942704 Ry
     estimated scf accuracy    <       5.37801973 Ry

     iteration # 11     ecut=    60.00 Ry     beta= 0.30
     Davidson diagonalization with overlap
     ethr =  9.87E-04,  avg # of iterations =  8.0

     negative rho (up, down):  3.565E-02 0.000E+00

     total cpu time spent up to now is      120.9 secs

     total energy              =   -5284.83531645 Ry
     estimated scf accuracy    <       6.87547075 Ry

     iteration # 12     ecut=    60.00 Ry     beta= 0.30
     Davidson diagonalization with overlap
     ethr =  9.87E-04,  avg # of iterations =  2.0

     negative rho (up, down):  3.475E-02 0.000E+00

     total cpu time spent up to now is      127.8 secs

     total energy              =   -5284.56824581 Ry
     estimated scf accuracy    <       2.96009253 Ry

     iteration # 13     ecut=    60.00 Ry     beta= 0.30
     Davidson diagonalization with overlap
     ethr =  5.43E-04,  avg # of iterations =  2.0

     negative rho (up, down):  3.473E-02 0.000E+00

     total cpu time spent up to now is      135.6 secs

     total energy              =   -5284.53847207 Ry
     estimated scf accuracy    <       8.93555282 Ry

     iteration # 14     ecut=    60.00 Ry     beta= 0.30
     Davidson diagonalization with overlap
     ethr =  5.43E-04,  avg # of iterations =  1.0

     negative rho (up, down):  3.454E-02 0.000E+00

     total cpu time spent up to now is      142.2 secs

     total energy              =   -5284.68845197 Ry
     estimated scf accuracy    <       1.81903936 Ry

     iteration # 15     ecut=    60.00 Ry     beta= 0.30
     Davidson diagonalization with overlap
     ethr =  3.34E-04,  avg # of iterations =  2.0

     negative rho (up, down):  3.466E-02 0.000E+00

     total cpu time spent up to now is      149.8 secs

     total energy              =   -5284.70833690 Ry
     estimated scf accuracy    <       0.75339959 Ry

     iteration # 16     ecut=    60.00 Ry     beta= 0.30
     Davidson diagonalization with overlap
     ethr =  1.38E-04,  avg # of iterations =  2.0

     negative rho (up, down):  3.472E-02 0.000E+00

     total cpu time spent up to now is      157.1 secs

     total energy              =   -5284.72806536 Ry
     estimated scf accuracy    <       0.54429075 Ry

     iteration # 17     ecut=    60.00 Ry     beta= 0.30
     Davidson diagonalization with overlap
     ethr =  9.99E-05,  avg # of iterations = 10.0

     negative rho (up, down):  3.479E-02 0.000E+00

     total cpu time spent up to now is      167.8 secs

     total energy              =   -5284.73560311 Ry
     estimated scf accuracy    <       0.39709734 Ry

     iteration # 18     ecut=    60.00 Ry     beta= 0.30
     Davidson diagonalization with overlap
     ethr =  7.29E-05,  avg # of iterations = 10.0

     negative rho (up, down):  3.478E-02 0.000E+00

     total cpu time spent up to now is      177.7 secs

     total energy              =   -5284.74621350 Ry
     estimated scf accuracy    <       0.30456735 Ry

     iteration # 19     ecut=    60.00 Ry     beta= 0.30
     Davidson diagonalization with overlap
     ethr =  5.59E-05,  avg # of iterations = 17.0

     negative rho (up, down):  3.476E-02 0.000E+00

     total cpu time spent up to now is      191.3 secs

     total energy              =   -5284.74504623 Ry
     estimated scf accuracy    <       0.31071209 Ry

     iteration # 20     ecut=    60.00 Ry     beta= 0.30
     Davidson diagonalization with overlap
     ethr =  5.59E-05,  avg # of iterations =  1.0

     negative rho (up, down):  3.481E-02 0.000E+00

     total cpu time spent up to now is      197.5 secs

     total energy              =   -5284.74597960 Ry
     estimated scf accuracy    <       0.58025904 Ry

     iteration # 21     ecut=    60.00 Ry     beta= 0.30
     Davidson diagonalization with overlap
     ethr =  5.59E-05,  avg # of iterations =  1.0

     negative rho (up, down):  3.481E-02 0.000E+00

     total cpu time spent up to now is      204.3 secs

     total energy              =   -5284.75365434 Ry
     estimated scf accuracy    <       0.10245632 Ry

     iteration # 22     ecut=    60.00 Ry     beta= 0.30
     Davidson diagonalization with overlap
     ethr =  1.88E-05,  avg # of iterations =  2.0

     negative rho (up, down):  3.480E-02 0.000E+00

     total cpu time spent up to now is      211.2 secs

     total energy              =   -5284.75597345 Ry
     estimated scf accuracy    <       0.06155263 Ry

     iteration # 23     ecut=    60.00 Ry     beta= 0.30
     Davidson diagonalization with overlap
     ethr =  1.13E-05,  avg # of iterations = 11.0

     negative rho (up, down):  3.478E-02 0.000E+00

     total cpu time spent up to now is      222.4 secs

     total energy              =   -5284.75550178 Ry
     estimated scf accuracy    <       0.15731193 Ry

     iteration # 24     ecut=    60.00 Ry     beta= 0.30
     Davidson diagonalization with overlap
     ethr =  1.13E-05,  avg # of iterations =  2.0

     negative rho (up, down):  3.478E-02 0.000E+00

     total cpu time spent up to now is      229.3 secs

     total energy              =   -5284.75689579 Ry
     estimated scf accuracy    <       0.08636002 Ry

     iteration # 25     ecut=    60.00 Ry     beta= 0.30
     Davidson diagonalization with overlap
     ethr =  1.13E-05,  avg # of iterations =  2.0

     negative rho (up, down):  3.473E-02 0.000E+00

     total cpu time spent up to now is      237.0 secs

     total energy              =   -5284.75768854 Ry
     estimated scf accuracy    <       0.04669530 Ry

     iteration # 26     ecut=    60.00 Ry     beta= 0.30
     Davidson diagonalization with overlap
     ethr =  8.57E-06,  avg # of iterations =  2.0

     negative rho (up, down):  3.472E-02 0.000E+00

     total cpu time spent up to now is      244.2 secs

     total energy              =   -5284.75883266 Ry
     estimated scf accuracy    <       0.01759340 Ry

     iteration # 27     ecut=    60.00 Ry     beta= 0.30
     Davidson diagonalization with overlap
     ethr =  3.23E-06,  avg # of iterations = 16.0

     negative rho (up, down):  3.470E-02 0.000E+00

     total cpu time spent up to now is      257.9 secs

     total energy              =   -5284.75914017 Ry
     estimated scf accuracy    <       0.01445807 Ry

     iteration # 28     ecut=    60.00 Ry     beta= 0.30
     Davidson diagonalization with overlap
     ethr =  2.65E-06,  avg # of iterations =  2.0

     negative rho (up, down):  3.468E-02 0.000E+00

     total cpu time spent up to now is      265.2 secs

     total energy              =   -5284.75936014 Ry
     estimated scf accuracy    <       0.01358408 Ry

     iteration # 29     ecut=    60.00 Ry     beta= 0.30
     Davidson diagonalization with overlap
     ethr =  2.49E-06,  avg # of iterations =  2.0

     negative rho (up, down):  3.468E-02 0.000E+00

     total cpu time spent up to now is      272.0 secs

     total energy              =   -5284.75946376 Ry
     estimated scf accuracy    <       0.00942100 Ry

     iteration # 30     ecut=    60.00 Ry     beta= 0.30
     Davidson diagonalization with overlap
     ethr =  1.73E-06,  avg # of iterations =  2.0

     negative rho (up, down):  3.467E-02 0.000E+00

     total cpu time spent up to now is      279.2 secs

     total energy              =   -5284.75930815 Ry
     estimated scf accuracy    <       0.02522007 Ry

     iteration # 31     ecut=    60.00 Ry     beta= 0.30
     Davidson diagonalization with overlap
     ethr =  1.73E-06,  avg # of iterations =  1.0

     negative rho (up, down):  3.468E-02 0.000E+00

     total cpu time spent up to now is      286.0 secs

     total energy              =   -5284.75966705 Ry
     estimated scf accuracy    <       0.00695274 Ry

     iteration # 32     ecut=    60.00 Ry     beta= 0.30
     Davidson diagonalization with overlap
     ethr =  1.28E-06,  avg # of iterations =  2.0

     negative rho (up, down):  3.467E-02 0.000E+00

     total cpu time spent up to now is      293.2 secs

     total energy              =   -5284.75978213 Ry
     estimated scf accuracy    <       0.00338612 Ry

     iteration # 33     ecut=    60.00 Ry     beta= 0.30
     Davidson diagonalization with overlap
     ethr =  6.21E-07,  avg # of iterations =  1.0

     negative rho (up, down):  3.466E-02 0.000E+00

     total cpu time spent up to now is      299.7 secs

     total energy              =   -5284.75984596 Ry
     estimated scf accuracy    <       0.00318880 Ry

     iteration # 34     ecut=    60.00 Ry     beta= 0.30
     Davidson diagonalization with overlap
     ethr =  5.85E-07,  avg # of iterations =  1.0

     negative rho (up, down):  3.465E-02 0.000E+00

     total cpu time spent up to now is      306.6 secs

     total energy              =   -5284.75985041 Ry
     estimated scf accuracy    <       0.00428557 Ry

     iteration # 35     ecut=    60.00 Ry     beta= 0.30
     Davidson diagonalization with overlap
     ethr =  5.85E-07,  avg # of iterations =  1.0

     negative rho (up, down):  3.466E-02 0.000E+00

     total cpu time spent up to now is      313.0 secs

     total energy              =   -5284.75981896 Ry
     estimated scf accuracy    <       0.00404264 Ry

     iteration # 36     ecut=    60.00 Ry     beta= 0.30
     Davidson diagonalization with overlap
     ethr =  5.85E-07,  avg # of iterations =  1.0

     negative rho (up, down):  3.465E-02 0.000E+00

     total cpu time spent up to now is      319.9 secs

     total energy              =   -5284.75989467 Ry
     estimated scf accuracy    <       0.00157422 Ry

     iteration # 37     ecut=    60.00 Ry     beta= 0.30
     Davidson diagonalization with overlap
     ethr =  2.89E-07,  avg # of iterations =  1.0

     negative rho (up, down):  3.464E-02 0.000E+00

     total cpu time spent up to now is      326.4 secs

     total energy              =   -5284.75992857 Ry
     estimated scf accuracy    <       0.00106511 Ry

     iteration # 38     ecut=    60.00 Ry     beta= 0.30
     Davidson diagonalization with overlap
     ethr =  1.95E-07,  avg # of iterations =  1.0

     negative rho (up, down):  3.464E-02 0.000E+00

     total cpu time spent up to now is      332.9 secs

     total energy              =   -5284.75994227 Ry
     estimated scf accuracy    <       0.00100810 Ry

     iteration # 39     ecut=    60.00 Ry     beta= 0.30
     Davidson diagonalization with overlap
     ethr =  1.85E-07,  avg # of iterations =  1.0

     negative rho (up, down):  3.464E-02 0.000E+00

     total cpu time spent up to now is      339.3 secs

     total energy              =   -5284.75996096 Ry
     estimated scf accuracy    <       0.00057346 Ry

     iteration # 40     ecut=    60.00 Ry     beta= 0.30
     Davidson diagonalization with overlap
     ethr =  1.05E-07,  avg # of iterations =  1.0

     negative rho (up, down):  3.464E-02 0.000E+00

     total cpu time spent up to now is      346.0 secs

     total energy              =   -5284.75994256 Ry
     estimated scf accuracy    <       0.00165752 Ry

     iteration # 41     ecut=    60.00 Ry     beta= 0.30
     Davidson diagonalization with overlap
     ethr =  1.05E-07,  avg # of iterations =  1.0

     negative rho (up, down):  3.464E-02 0.000E+00

     total cpu time spent up to now is      352.8 secs

     total energy              =   -5284.75996142 Ry
     estimated scf accuracy    <       0.00083833 Ry

     iteration # 42     ecut=    60.00 Ry     beta= 0.30
     Davidson diagonalization with overlap
     ethr =  1.05E-07,  avg # of iterations =  1.0

     negative rho (up, down):  3.463E-02 0.000E+00

     total cpu time spent up to now is      359.3 secs

     total energy              =   -5284.75997204 Ry
     estimated scf accuracy    <       0.00038624 Ry

     iteration # 43     ecut=    60.00 Ry     beta= 0.30
     Davidson diagonalization with overlap
     ethr =  7.09E-08,  avg # of iterations =  1.0

     negative rho (up, down):  3.463E-02 0.000E+00

     total cpu time spent up to now is      365.7 secs

     total energy              =   -5284.75998172 Ry
     estimated scf accuracy    <       0.00023886 Ry

     iteration # 44     ecut=    60.00 Ry     beta= 0.30
     Davidson diagonalization with overlap
     ethr =  4.38E-08,  avg # of iterations =  1.0

     negative rho (up, down):  3.463E-02 0.000E+00

     total cpu time spent up to now is      372.3 secs

     total energy              =   -5284.75998629 Ry
     estimated scf accuracy    <       0.00025435 Ry

     iteration # 45     ecut=    60.00 Ry     beta= 0.30
     Davidson diagonalization with overlap
     ethr =  4.38E-08,  avg # of iterations =  1.0

     negative rho (up, down):  3.463E-02 0.000E+00

     total cpu time spent up to now is      378.8 secs

     total energy              =   -5284.75998320 Ry
     estimated scf accuracy    <       0.00026683 Ry

     iteration # 46     ecut=    60.00 Ry     beta= 0.30
     Davidson diagonalization with overlap
     ethr =  4.38E-08,  avg # of iterations =  1.0

     negative rho (up, down):  3.463E-02 0.000E+00

     total cpu time spent up to now is      385.4 secs

     total energy              =   -5284.75998511 Ry
     estimated scf accuracy    <       0.00015348 Ry

     iteration # 47     ecut=    60.00 Ry     beta= 0.30
     Davidson diagonalization with overlap
     ethr =  2.82E-08,  avg # of iterations =  1.0

     negative rho (up, down):  3.463E-02 0.000E+00

     total cpu time spent up to now is      392.1 secs

     total energy              =   -5284.75998843 Ry
     estimated scf accuracy    <       0.00012192 Ry

     iteration # 48     ecut=    60.00 Ry     beta= 0.30
     Davidson diagonalization with overlap
     ethr =  2.24E-08,  avg # of iterations =  1.0

     negative rho (up, down):  3.463E-02 0.000E+00

     total cpu time spent up to now is      398.5 secs

     total energy              =   -5284.75998961 Ry
     estimated scf accuracy    <       0.00009621 Ry

     iteration # 49     ecut=    60.00 Ry     beta= 0.30
     Davidson diagonalization with overlap
     ethr =  1.77E-08,  avg # of iterations =  1.0

     negative rho (up, down):  3.462E-02 0.000E+00

     total cpu time spent up to now is      405.0 secs

     total energy              =   -5284.75999198 Ry
     estimated scf accuracy    <       0.00006125 Ry

     iteration # 50     ecut=    60.00 Ry     beta= 0.30
     Davidson diagonalization with overlap
     ethr =  1.12E-08,  avg # of iterations =  1.0

     negative rho (up, down):  3.462E-02 0.000E+00

     total cpu time spent up to now is      411.8 secs

     total energy              =   -5284.75999082 Ry
     estimated scf accuracy    <       0.00013074 Ry

     iteration # 51     ecut=    60.00 Ry     beta= 0.30
     Davidson diagonalization with overlap
     ethr =  1.12E-08,  avg # of iterations =  1.0

     negative rho (up, down):  3.462E-02 0.000E+00

     total cpu time spent up to now is      418.3 secs

     total energy              =   -5284.75999144 Ry
     estimated scf accuracy    <       0.00011323 Ry

     iteration # 52     ecut=    60.00 Ry     beta= 0.30
     Davidson diagonalization with overlap
     ethr =  1.12E-08,  avg # of iterations =  1.0

     negative rho (up, down):  3.462E-02 0.000E+00

     total cpu time spent up to now is      424.9 secs

     total energy              =   -5284.75999246 Ry
     estimated scf accuracy    <       0.00005295 Ry

     iteration # 53     ecut=    60.00 Ry     beta= 0.30
     Davidson diagonalization with overlap
     ethr =  9.72E-09,  avg # of iterations =  1.0

     negative rho (up, down):  3.462E-02 0.000E+00

     total cpu time spent up to now is      431.5 secs

     total energy              =   -5284.75999361 Ry
     estimated scf accuracy    <       0.00003382 Ry

     iteration # 54     ecut=    60.00 Ry     beta= 0.30
     Davidson diagonalization with overlap
     ethr =  6.21E-09,  avg # of iterations =  1.0

     negative rho (up, down):  3.462E-02 0.000E+00

     total cpu time spent up to now is      438.0 secs

     total energy              =   -5284.75999456 Ry
     estimated scf accuracy    <       0.00002583 Ry

     iteration # 55     ecut=    60.00 Ry     beta= 0.30
     Davidson diagonalization with overlap
     ethr =  4.74E-09,  avg # of iterations =  1.0

     negative rho (up, down):  3.462E-02 0.000E+00

     total cpu time spent up to now is      444.7 secs

     total energy              =   -5284.75999464 Ry
     estimated scf accuracy    <       0.00001564 Ry

     iteration # 56     ecut=    60.00 Ry     beta= 0.30
     Davidson diagonalization with overlap
     ethr =  2.87E-09,  avg # of iterations =  1.0

     negative rho (up, down):  3.462E-02 0.000E+00

     total cpu time spent up to now is      451.1 secs

     total energy              =   -5284.75999454 Ry
     estimated scf accuracy    <       0.00001287 Ry

     iteration # 57     ecut=    60.00 Ry     beta= 0.30
     Davidson diagonalization with overlap
     ethr =  2.36E-09,  avg # of iterations =  1.0

     negative rho (up, down):  3.462E-02 0.000E+00

     total cpu time spent up to now is      457.4 secs

     total energy              =   -5284.75999467 Ry
     estimated scf accuracy    <       0.00001621 Ry

     iteration # 58     ecut=    60.00 Ry     beta= 0.30
     Davidson diagonalization with overlap
     ethr =  2.36E-09,  avg # of iterations =  1.0

     negative rho (up, down):  3.462E-02 0.000E+00

     total cpu time spent up to now is      464.2 secs

     total energy              =   -5284.75999490 Ry
     estimated scf accuracy    <       0.00000807 Ry

     iteration # 59     ecut=    60.00 Ry     beta= 0.30
     Davidson diagonalization with overlap
     ethr =  1.48E-09,  avg # of iterations =  1.0

     negative rho (up, down):  3.462E-02 0.000E+00

     total cpu time spent up to now is      471.0 secs

     total energy              =   -5284.75999508 Ry
     estimated scf accuracy    <       0.00000795 Ry

     iteration # 60     ecut=    60.00 Ry     beta= 0.30
     Davidson diagonalization with overlap
     ethr =  1.46E-09,  avg # of iterations =  1.0

     negative rho (up, down):  3.462E-02 0.000E+00

     total cpu time spent up to now is      477.7 secs

     total energy              =   -5284.75999511 Ry
     estimated scf accuracy    <       0.00001177 Ry

     iteration # 61     ecut=    60.00 Ry     beta= 0.30
     Davidson diagonalization with overlap
     ethr =  1.46E-09,  avg # of iterations =  1.0

     negative rho (up, down):  3.462E-02 0.000E+00

     total cpu time spent up to now is      484.0 secs

     total energy              =   -5284.75999512 Ry
     estimated scf accuracy    <       0.00001129 Ry

     iteration # 62     ecut=    60.00 Ry     beta= 0.30
     Davidson diagonalization with overlap
     ethr =  1.46E-09,  avg # of iterations =  1.0

     negative rho (up, down):  3.462E-02 0.000E+00

     total cpu time spent up to now is      490.7 secs

     total energy              =   -5284.75999518 Ry
     estimated scf accuracy    <       0.00000492 Ry

     iteration # 63     ecut=    60.00 Ry     beta= 0.30
     Davidson diagonalization with overlap
     ethr =  9.03E-10,  avg # of iterations =  1.0

     negative rho (up, down):  3.462E-02 0.000E+00

     total cpu time spent up to now is      497.3 secs

     total energy              =   -5284.75999522 Ry
     estimated scf accuracy    <       0.00000568 Ry

     iteration # 64     ecut=    60.00 Ry     beta= 0.30
     Davidson diagonalization with overlap
     ethr =  9.03E-10,  avg # of iterations =  1.0

     negative rho (up, down):  3.462E-02 0.000E+00

     total cpu time spent up to now is      504.2 secs

     total energy              =   -5284.75999533 Ry
     estimated scf accuracy    <       0.00000638 Ry

     iteration # 65     ecut=    60.00 Ry     beta= 0.30
     Davidson diagonalization with overlap
     ethr =  9.03E-10,  avg # of iterations =  1.0

     negative rho (up, down):  3.462E-02 0.000E+00

     total cpu time spent up to now is      510.6 secs

     total energy              =   -5284.75999543 Ry
     estimated scf accuracy    <       0.00000147 Ry

     iteration # 66     ecut=    60.00 Ry     beta= 0.30
     Davidson diagonalization with overlap
     ethr =  2.69E-10,  avg # of iterations =  1.0

     negative rho (up, down):  3.462E-02 0.000E+00

     total cpu time spent up to now is      517.4 secs

     total energy              =   -5284.75999543 Ry
     estimated scf accuracy    <       0.00000111 Ry

     iteration # 67     ecut=    60.00 Ry     beta= 0.30
     Davidson diagonalization with overlap
     ethr =  2.04E-10,  avg # of iterations =  1.0

     negative rho (up, down):  3.462E-02 0.000E+00

     total cpu time spent up to now is      524.1 secs

     total energy              =   -5284.75999542 Ry
     estimated scf accuracy    <       0.00000156 Ry

     iteration # 68     ecut=    60.00 Ry     beta= 0.30
     Davidson diagonalization with overlap
     ethr =  2.04E-10,  avg # of iterations =  1.0

     negative rho (up, down):  3.462E-02 0.000E+00

     total cpu time spent up to now is      530.9 secs

     total energy              =   -5284.75999545 Ry
     estimated scf accuracy    <       0.00000075 Ry

     iteration # 69     ecut=    60.00 Ry     beta= 0.30
     Davidson diagonalization with overlap
     ethr =  1.38E-10,  avg # of iterations =  1.0

     negative rho (up, down):  3.462E-02 0.000E+00

     total cpu time spent up to now is      537.4 secs

     total energy              =   -5284.75999546 Ry
     estimated scf accuracy    <       0.00000100 Ry

     iteration # 70     ecut=    60.00 Ry     beta= 0.30
     Davidson diagonalization with overlap
     ethr =  1.38E-10,  avg # of iterations =  1.0

     negative rho (up, down):  3.462E-02 0.000E+00

     total cpu time spent up to now is      543.7 secs

     total energy              =   -5284.75999547 Ry
     estimated scf accuracy    <       0.00000099 Ry

     iteration # 71     ecut=    60.00 Ry     beta= 0.30
     Davidson diagonalization with overlap
     ethr =  1.38E-10,  avg # of iterations =  1.0

     negative rho (up, down):  3.462E-02 0.000E+00

     total cpu time spent up to now is      550.5 secs

     total energy              =   -5284.75999548 Ry
     estimated scf accuracy    <       0.00000058 Ry

     iteration # 72     ecut=    60.00 Ry     beta= 0.30
     Davidson diagonalization with overlap
     ethr =  1.07E-10,  avg # of iterations =  1.0

     negative rho (up, down):  3.462E-02 0.000E+00

     total cpu time spent up to now is      557.1 secs

     total energy              =   -5284.75999548 Ry
     estimated scf accuracy    <       0.00000032 Ry

     iteration # 73     ecut=    60.00 Ry     beta= 0.30
     Davidson diagonalization with overlap
     ethr =  5.85E-11,  avg # of iterations =  2.0

     negative rho (up, down):  3.462E-02 0.000E+00

     total cpu time spent up to now is      564.0 secs

     total energy              =   -5284.75999547 Ry
     estimated scf accuracy    <       0.00000079 Ry

     iteration # 74     ecut=    60.00 Ry     beta= 0.30
     Davidson diagonalization with overlap
     ethr =  5.85E-11,  avg # of iterations =  2.0

     negative rho (up, down):  3.462E-02 0.000E+00

     total cpu time spent up to now is      571.4 secs

     total energy              =   -5284.75999546 Ry
     estimated scf accuracy    <       0.00000206 Ry

     iteration # 75     ecut=    60.00 Ry     beta= 0.30
     Davidson diagonalization with overlap
     ethr =  5.85E-11,  avg # of iterations =  1.0

     negative rho (up, down):  3.462E-02 0.000E+00

     total cpu time spent up to now is      577.9 secs

     total energy              =   -5284.75999549 Ry
     estimated scf accuracy    <       0.00000024 Ry

     iteration # 76     ecut=    60.00 Ry     beta= 0.30
     Davidson diagonalization with overlap
     ethr =  4.46E-11,  avg # of iterations =  1.0

     negative rho (up, down):  3.462E-02 0.000E+00

     total cpu time spent up to now is      584.5 secs

     End of self-consistent calculation

          k = 0.0000 0.0000 0.0000 ( 46961 PWs)   bands (ev):

   -69.7093 -69.6860 -69.6404 -69.6318 -69.6315 -69.5994 -69.5963 -69.5849
   -69.5321 -69.4890 -69.3533 -62.1778 -62.1622 -62.1524 -62.1149 -62.1021
   -62.0566 -62.0265 -62.0193 -62.0023 -61.9351 -54.4136 -54.3894 -54.2855
   -54.1905 -54.1712 -54.1661 -54.0895 -54.0417 -54.0301 -54.0156 -53.9044
   -41.1292 -41.1150 -41.1077 -41.0948 -41.0902 -41.0707 -41.0606 -41.0477
   -41.0433 -41.0215 -41.0195 -41.0037 -40.9966 -40.9852 -40.9798 -40.9484
   -40.9425 -40.9403 -40.9288 -40.9234 -40.9221 -40.9162 -40.9107 -40.8900
   -40.8718 -40.8654 -40.8553 -40.8499 -40.8451 -40.7990 -40.7068 -40.6685
   -40.5733 -36.1432 -36.1189 -36.0994 -36.0908 -36.0768 -36.0510 -36.0363
   -36.0220 -36.0042 -35.9979 -35.9925 -35.9801 -35.9687 -35.9638 -35.9559
   -35.9460 -35.9348 -35.9188 -35.9148 -35.9008 -35.8951 -35.8880 -35.8827
   -35.8625 -35.8483 -35.8250 -35.8088 -35.8006 -35.7581 -35.7382 -30.8462
   -30.7998 -30.7055 -30.6881 -30.6607 -30.6484 -30.6452 -30.6409 -30.6137
   -30.5991 -30.5610 -30.5453 -30.5407 -30.5186 -30.5142 -30.4943 -30.4814
   -30.4757 -30.4654 -30.4519 -30.4413 -30.4172 -30.3903 -30.3738 -30.3424
   -30.3180 -30.3028 -30.2796 -30.2716 -30.2480 -30.2217 -30.2065 -30.1462
   -10.8503  -9.8004  -9.3946  -9.3113  -9.1798  -9.0518  -8.7228  -8.5060
    -8.4658  -8.4277  -8.3772  -8.2713  -8.2230  -8.1109  -8.0932  -7.9063
    -7.8300  -7.7843  -7.6863  -7.6363  -7.5905  -7.5666  -7.5454  -7.4898
    -7.4448  -7.4283  -7.2806  -7.2544  -7.0008  -6.9523  -6.9150  -6.5893
    -4.0324  -4.0138  -3.9823  -3.8151  -3.0877  -2.9647  -2.9264  -2.9062
    -2.7424  -2.7181  -2.6684  -2.6067  -2.5038  -2.4427  -2.4324  -2.3042
    -2.1672  -2.1626  -2.1026  -1.9498  -1.9280  -1.8849  -1.8471  -1.7908
    -1.7012  -1.6332  -1.5781  -1.5397  -1.5103  -1.5000  -1.4866  -1.4568
    -1.4553  -1.4414  -1.4303  -1.4188  -1.3888  -1.3443  -1.3048  -1.2905
    -1.2537  -1.1915  -1.1408  -1.1402  -1.1154  -1.0910  -1.0141  -0.9877
    -0.9735  -0.9404  -0.9006  -0.8799  -0.8471  -0.8303  -0.8142  -0.7856
    -0.7603  -0.7503  -0.7186  -0.6902  -0.6603  -0.6335  -0.5598  -0.5148
    -0.4599  -0.3979  -0.3749  -0.3192  -0.2855  -0.2662  -0.2211  -0.1851
    -0.1263  -0.1023  -0.0735   0.0537   0.0695   0.2003   0.2770   0.3448
     0.3850   0.4856   0.5799   0.6027   0.6458   0.7157   0.8209   0.8547
     0.9449   0.9673   1.1246   1.1334   1.2257   1.3009   1.3549   1.3722
     1.4872   1.5040   1.6558   1.6644   1.7199   1.7666   1.9203   1.9566
     2.0450   2.5478   2.6378   2.6600   2.7104   2.7300   2.8014   2.8390
     2.8721   2.9337   2.9727   2.9907   3.0063   3.0430   3.0847   3.1359
     3.1534   3.1872   3.2123   3.2325   3.2374   3.2651   3.2886   3.3171
     3.3333   3.3698   3.3882   3.4385   3.4576   3.5143   3.5344   3.5684
     3.5796   3.6134   3.7004   3.7140   3.7366   3.8322   3.8387   3.8905
     3.9169   3.9565   3.9880   3.9907   4.0323   4.0376   4.1085   4.1260
     4.1686   4.2021   4.2373   4.3294   4.3548   4.3794   4.4180   4.4307
     4.4679   4.4871   4.5040   4.5778   4.6260   4.6490   4.6642   4.7163

     the Fermi energy is     2.8870 ev

!    total energy              =   -5284.75999542 Ry
     estimated scf accuracy    <       0.00000009 Ry
     smearing contrib. (-TS)   =      -0.04689609 Ry
     internal energy E=F+TS    =   -5284.71309933 Ry

     The total energy is F=E-TS. E is the sum of the following terms:
     one-electron contribution =  -55967.62800991 Ry
     hartree contribution      =   28007.14991470 Ry
     xc contribution           =    -788.09132583 Ry
     ewald contribution        =   23661.45436597 Ry
     one-center paw contrib.   =    -197.59804425 Ry

     convergence has been achieved in  76 iterations

     negative rho (up, down):  3.462E-02 0.000E+00

     Forces acting on atoms (cartesian axes, Ry/au):

     atom    1 type  1   force =    -0.00042932    0.00050781   -0.02481796
     atom    2 type  1   force =    -0.00946416   -0.00671565    0.02144583
     atom    3 type  1   force =     0.00023794    0.00984063    0.00428667
     atom    4 type  1   force =    -0.00000541   -0.01664177    0.03185307
     atom    5 type  1   force =    -0.00423850    0.01162916    0.00331768
     atom    6 type  1   force =     0.00912987   -0.00264750    0.02781637
     atom    7 type  1   force =    -0.00018336    0.00317457   -0.02237278
     atom    8 type  1   force =     0.00211966    0.00380564   -0.03048351
     atom    9 type  1   force =    -0.00288499   -0.00304864   -0.01828399
     atom   10 type  1   force =    -0.00121096   -0.00030101   -0.01569044
     atom   11 type  1   force =     0.00198819    0.00317449   -0.01045744
     atom   12 type  2   force =     0.00688721    0.00455033   -0.02479309
     atom   13 type  2   force =    -0.00133664    0.00708346   -0.01391084
     atom   14 type  2   force =     0.02161457    0.00166428    0.01495907
     atom   15 type  2   force =    -0.01138460    0.00017503    0.11643628
     atom   16 type  2   force =     0.00708821   -0.00075568    0.09396328
     atom   17 type  2   force =    -0.00911763   -0.00772530    0.00784892
     atom   18 type  2   force =     0.00150149    0.01052666    0.01871825
     atom   19 type  2   force =    -0.00913972    0.01470307   -0.02470410
     atom   20 type  2   force =     0.00037560   -0.00792685   -0.00441523
     atom   21 type  2   force =     0.00291603    0.02967926   -0.01066648
     atom   22 type  3   force =     0.00759159   -0.01618964   -0.02707369
     atom   23 type  3   force =    -0.02749578   -0.00826927    0.01850242
     atom   24 type  3   force =     0.03088672    0.01402758   -0.02204472
     atom   25 type  3   force =     0.01371372   -0.01467320    0.07225089
     atom   26 type  3   force =    -0.00449325    0.00897621    0.12427618
     atom   27 type  3   force =     0.00771603   -0.00957766    0.00974695
     atom   28 type  3   force =    -0.00900433   -0.00034183    0.03798947
     atom   29 type  3   force =    -0.00615565    0.00596121   -0.01174898
     atom   30 type  3   force =     0.00650898    0.00792310   -0.01147068
     atom   31 type  3   force =     0.00677915   -0.01036746   -0.01002077
     atom   32 type  3   force =    -0.01149032   -0.01613248   -0.01304615
     atom   33 type  4   force =     0.00130338   -0.00678205   -0.03878713
     atom   34 type  4   force =     0.00992478    0.01392212   -0.00679805
     atom   35 type  4   force =    -0.00149180   -0.01595425   -0.02620664
     atom   36 type  4   force =     0.00093207    0.01093871   -0.03503563
     atom   37 type  4   force =    -0.00302046    0.00140346    0.03108556
     atom   38 type  4   force =     0.00109623   -0.00768258    0.02589258
     atom   39 type  4   force =     0.00053591    0.00708683    0.00609778
     atom   40 type  4   force =    -0.00053857   -0.00987122    0.00811780
     atom   41 type  4   force =     0.00269486   -0.00653436    0.00949758
     atom   42 type  4   force =    -0.00108945   -0.00211459    0.00743174
     atom   43 type  4   force =    -0.00450879   -0.00813439    0.01284780
     atom   44 type  4   force =    -0.00112251   -0.00317190    0.00721314
     atom   45 type  4   force =     0.00395377    0.01127975   -0.04868665
     atom   46 type  4   force =     0.00692414    0.00156132   -0.04993002
     atom   47 type  4   force =    -0.01196570    0.00318374   -0.03443088
     atom   48 type  4   force =    -0.01644772   -0.00846480   -0.02709373
     atom   49 type  4   force =    -0.00272476    0.00055155    0.00592361
     atom   50 type  4   force =    -0.00223972    0.00029844   -0.00097287
     atom   51 type  4   force =     0.00255662   -0.00770625    0.01337306
     atom   52 type  4   force =     0.00383542    0.00234769   -0.00036183
     atom   53 type  4   force =    -0.00218598   -0.00644210   -0.02815556
     atom   54 type  4   force =    -0.00540559    0.00976799   -0.02606928
     atom   55 type  4   force =     0.00103749    0.00416816   -0.02943957
     atom   56 type  4   force =    -0.00020689   -0.00883346   -0.02952174
     atom   57 type  4   force =    -0.01537627    0.00877545   -0.02596890
     atom   58 type  4   force =    -0.00945941   -0.00655517   -0.03126734
     atom   59 type  4   force =     0.01478855    0.01436678   -0.03131159
     atom   60 type  4   force =     0.00199562   -0.00960392   -0.01730327
     atom   61 type  4   force =     0.00819354    0.00262588    0.01358409
     atom   62 type  4   force =     0.00465890   -0.00232946    0.02327080
     atom   63 type  4   force =    -0.00082114    0.00247430    0.00784984
     atom   64 type  4   force =    -0.00289001   -0.00470052    0.01657276
     atom   65 type  5   force =    -0.00195686    0.00404027   -0.00882794

     Total force =     0.106090     Total SCF correction =     0.000583

     BFGS Geometry Optimization
     Energy error            =      0.0E+00 Ry
     Gradient error          =      3.1E-02 Ry/Bohr

     number of scf cycles    =   1
     number of bfgs steps    =   0

     energy             new  =   -5284.7599954176 Ry

     new trust radius        =       0.0324456653 bohr
     new conv_thr            =       0.0000001000 Ry


ATOMIC_POSITIONS (angstrom)
Ti               8.3837800196        0.0382238059       15.7768584682
Ti               0.0291331002        8.3621570543       11.5803477355    0   0   0
Ti               2.0982363243        4.1912458132       13.6678455629
Ti               8.3795041056        2.0957563981        9.4724378689    0   0   0
Ti               8.3750099733        6.2687152092        9.4933225157    0   0   0
Ti               4.2170671874        6.2898439467        9.4911460380    0   0   0
Ti               8.3771544379        2.0799871627       13.6736964618
Ti               8.3837287171        6.2810755140       13.6881650321
Ti               4.2038877925        6.2811788417       13.6960821167
Ti               2.1164121048        6.2569295940       15.8023204914
Ti               6.2774137635        6.2670698652       15.7873204267
V                8.3690841805        4.1229869144       15.6642556834
V                4.2056855872        4.1315912914       15.6503694273
V                4.1453105473        4.2119457891       11.5975026988    0   0   0
V                2.1879867013        0.0520231596        9.5054883674    0   0   0
V                2.1522427348        4.1319303501        9.4904675789    0   0   0
V                2.1541228182        8.3484105357       13.6702850514
V                6.2938537682        4.2089781509       13.6813724294
V                4.2016591059        2.0576089937       13.6155392906
V                2.1048639148        6.2714192178       11.5723879270    0   0   0
V                6.3158808164        6.1438819511       11.5700667150    0   0   0
Cr               4.2020997616        0.0609979199       15.6871577616
Cr               0.1179128009        4.1786640750       11.5195623927    0   0   0
Cr               4.1681598842        8.2577799257       11.6615352591    0   0   0
Cr               6.1999882077        0.1106418811        9.6948923906    0   0   0
Cr               6.2007452456        4.0563627707        9.3394942948    0   0   0
Cr               6.2432243946        8.3154337670       13.6306839156
Cr               4.2149984025        2.0754774019        9.7444374941    0   0   0
Cr               2.1612478046        2.0810431907       15.5822019055
Cr               6.2259757502        2.0746204416       15.5532021977
Cr               2.0054620409        2.1149661174       11.6192682974    0   0   0
Cr               6.3992485267        2.2488278238       11.6549867199    0   0   0
C                8.3671464633        0.0123762133        9.4921945368    0   0   0
C                8.3685510870        4.1683341954        9.4949958325    0   0   0
C                4.2233794382        0.0660683478        9.5137772640    0   0   0
C                4.2071394793        4.1170355077        9.4900603783    0   0   0
C                8.3760446662       -0.0054541258       13.7604625375
C                8.3644579331        4.1726476306       13.7424834024
C                4.2050316105        0.0063290568       13.6594041400
C                4.2177168599        4.1387835661       13.7117875716
C                2.1560121824        0.0598807460       15.8651755208
C                2.1074977001        4.1013321725       15.8811863997
C                6.2303227288        0.0629427666       15.8455379850
C                6.2800289013        4.1050661412       15.8384528980
C                2.1521326937        0.0175132539       11.5903255372    0   0   0
C                2.1078429860        4.1683083653       11.5671868517    0   0   0
C                6.2417937451        0.0188099573       11.6002801854    0   0   0
C                6.3283074126        4.1569384024       11.5682471185    0   0   0
C                8.3753475115        2.1224636652       15.8633404792
C                8.3770592942        6.2280858512       15.9420820419
C                4.2010772379        2.0701399174       15.8034450585
C                4.2013007955        6.2416889025       15.8845951410
C                0.0147673152        2.1438801594       11.5939557114    0   0   0
C                0.0200697416        6.2277703895       11.5821679336    0   0   0
C                4.2182428542        2.0594943016       11.6100232202    0   0   0
C                4.2117703951        6.2583221129       11.5919858628    0   0   0
C                2.1713130363        2.0860319016        9.4919958919    0   0   0
C                2.1164500536        6.2753611976        9.5156635851    0   0   0
C                6.2203151227        2.0809934926        9.4961719556    0   0   0
C                6.2861737462        6.2618311600        9.5257047400    0   0   0
C                2.1356856240        2.0611221923       13.7080220502
C                2.1075887955        6.2942837120       13.7476562370
C                6.2635464438        2.0775114916       13.6859106345
C                6.2950971059        6.2615841113       13.7222557946
H                4.1827625293        0.0499430785       17.3142174869



     Writing config-only to output data dir ./tmp/hec3_CrTiV_f100_H_ads.save/ :
     XML data file
     NEW-OLD atomic charge density approx. for the potential

     Check: negative core charge=   -0.000005

     negative rho (up, down):  3.468E-02 0.000E+00

     total cpu time spent up to now is      595.0 secs

     Self-consistent Calculation

     iteration #  1     ecut=    60.00 Ry     beta= 0.30
     Davidson diagonalization with overlap
     c_bands:  1 eigenvalues not converged
     ethr =  1.00E-06,  avg # of iterations = 20.0

     negative rho (up, down):  3.448E-02 0.000E+00

     total cpu time spent up to now is      613.5 secs

     total energy              =   -5284.66057983 Ry
     estimated scf accuracy    <       0.22583137 Ry

     iteration #  2     ecut=    60.00 Ry     beta= 0.30
     Davidson diagonalization with overlap
     ethr =  4.14E-05,  avg # of iterations = 13.0

     negative rho (up, down):  3.467E-02 0.000E+00

     total cpu time spent up to now is      633.1 secs

     total energy              =   -5283.87701527 Ry
     estimated scf accuracy    <      71.44460591 Ry

     iteration #  3     ecut=    60.00 Ry     beta= 0.30
     Davidson diagonalization with overlap
     ethr =  4.14E-05,  avg # of iterations = 19.0

     negative rho (up, down):  3.459E-02 0.000E+00

     total cpu time spent up to now is      652.2 secs

     total energy              =   -5284.75069357 Ry
     estimated scf accuracy    <       0.53470706 Ry

     iteration #  4     ecut=    60.00 Ry     beta= 0.30
     Davidson diagonalization with overlap
     ethr =  4.14E-05,  avg # of iterations =  1.0

     negative rho (up, down):  3.452E-02 0.000E+00

     total cpu time spent up to now is      658.7 secs

     total energy              =   -5284.76314610 Ry
     estimated scf accuracy    <       0.22446219 Ry

     iteration #  5     ecut=    60.00 Ry     beta= 0.30
     Davidson diagonalization with overlap
     ethr =  4.12E-05,  avg # of iterations =  1.0

     negative rho (up, down):  3.454E-02 0.000E+00

     total cpu time spent up to now is      665.3 secs

     total energy              =   -5284.76735123 Ry
     estimated scf accuracy    <       0.02490824 Ry

     iteration #  6     ecut=    60.00 Ry     beta= 0.30
     Davidson diagonalization with overlap
     ethr =  4.57E-06,  avg # of iterations = 11.0

     negative rho (up, down):  3.456E-02 0.000E+00

     total cpu time spent up to now is      676.1 secs

     total energy              =   -5284.76853899 Ry
     estimated scf accuracy    <       0.01535757 Ry

     iteration #  7     ecut=    60.00 Ry     beta= 0.30
     Davidson diagonalization with overlap
     ethr =  2.82E-06,  avg # of iterations =  2.0

     negative rho (up, down):  3.457E-02 0.000E+00

     total cpu time spent up to now is      683.5 secs

     total energy              =   -5284.76911734 Ry
     estimated scf accuracy    <       0.00337360 Ry

     iteration #  8     ecut=    60.00 Ry     beta= 0.30
     Davidson diagonalization with overlap
     ethr =  6.19E-07,  avg # of iterations =  7.0

     negative rho (up, down):  3.459E-02 0.000E+00

     total cpu time spent up to now is      692.3 secs

     total energy              =   -5284.76927666 Ry
     estimated scf accuracy    <       0.00369902 Ry

     iteration #  9     ecut=    60.00 Ry     beta= 0.30
     Davidson diagonalization with overlap
     ethr =  6.19E-07,  avg # of iterations =  1.0

     negative rho (up, down):  3.460E-02 0.000E+00

     total cpu time spent up to now is      698.7 secs

     total energy              =   -5284.76933783 Ry
     estimated scf accuracy    <       0.00189396 Ry

     iteration # 10     ecut=    60.00 Ry     beta= 0.30
     Davidson diagonalization with overlap
     ethr =  3.48E-07,  avg # of iterations =  2.0

     negative rho (up, down):  3.461E-02 0.000E+00

     total cpu time spent up to now is      705.9 secs

     total energy              =   -5284.76935746 Ry
     estimated scf accuracy    <       0.00150152 Ry

     iteration # 11     ecut=    60.00 Ry     beta= 0.30
     Davidson diagonalization with overlap
     ethr =  2.76E-07,  avg # of iterations =  1.0

     negative rho (up, down):  3.462E-02 0.000E+00

     total cpu time spent up to now is      712.1 secs

     total energy              =   -5284.76938972 Ry
     estimated scf accuracy    <       0.00080280 Ry

     iteration # 12     ecut=    60.00 Ry     beta= 0.30
     Davidson diagonalization with overlap
     ethr =  1.47E-07,  avg # of iterations =  2.0

     negative rho (up, down):  3.463E-02 0.000E+00

     total cpu time spent up to now is      718.8 secs

     total energy              =   -5284.76935959 Ry
     estimated scf accuracy    <       0.00144675 Ry

     iteration # 13     ecut=    60.00 Ry     beta= 0.30
     Davidson diagonalization with overlap
     ethr =  1.47E-07,  avg # of iterations =  5.0

     negative rho (up, down):  3.463E-02 0.000E+00

     total cpu time spent up to now is      726.5 secs

     total energy              =   -5284.76929066 Ry
     estimated scf accuracy    <       0.00668308 Ry

     iteration # 14     ecut=    60.00 Ry     beta= 0.30
     Davidson diagonalization with overlap
     ethr =  1.47E-07,  avg # of iterations =  2.0

     negative rho (up, down):  3.464E-02 0.000E+00

     total cpu time spent up to now is      734.3 secs

     total energy              =   -5284.76941383 Ry
     estimated scf accuracy    <       0.00052206 Ry

     iteration # 15     ecut=    60.00 Ry     beta= 0.30
     Davidson diagonalization with overlap
     ethr =  9.58E-08,  avg # of iterations =  2.0

     negative rho (up, down):  3.464E-02 0.000E+00

     total cpu time spent up to now is      740.8 secs

     total energy              =   -5284.76941859 Ry
     estimated scf accuracy    <       0.00026346 Ry

     iteration # 16     ecut=    60.00 Ry     beta= 0.30
     Davidson diagonalization with overlap
     ethr =  4.83E-08,  avg # of iterations =  2.0

     negative rho (up, down):  3.464E-02 0.000E+00

     total cpu time spent up to now is      747.5 secs

     total energy              =   -5284.76940689 Ry
     estimated scf accuracy    <       0.00084922 Ry

     iteration # 17     ecut=    60.00 Ry     beta= 0.30
     Davidson diagonalization with overlap
     ethr =  4.83E-08,  avg # of iterations =  2.0

     negative rho (up, down):  3.464E-02 0.000E+00

     total cpu time spent up to now is      755.4 secs

     total energy              =   -5284.76941889 Ry
     estimated scf accuracy    <       0.00036668 Ry

     iteration # 18     ecut=    60.00 Ry     beta= 0.30
     Davidson diagonalization with overlap
     ethr =  4.83E-08,  avg # of iterations =  1.0

     negative rho (up, down):  3.464E-02 0.000E+00

     total cpu time spent up to now is      767.0 secs

     total energy              =   -5284.76942706 Ry
     estimated scf accuracy    <       0.00010384 Ry

     iteration # 19     ecut=    60.00 Ry     beta= 0.30
     Davidson diagonalization with overlap
     ethr =  1.91E-08,  avg # of iterations =  2.0

     negative rho (up, down):  3.464E-02 0.000E+00

     total cpu time spent up to now is      774.0 secs

     total energy              =   -5284.76942841 Ry
     estimated scf accuracy    <       0.00017666 Ry

     iteration # 20     ecut=    60.00 Ry     beta= 0.30
     Davidson diagonalization with overlap
     ethr =  1.91E-08,  avg # of iterations =  1.0

     negative rho (up, down):  3.464E-02 0.000E+00

     total cpu time spent up to now is      780.6 secs

     total energy              =   -5284.76943118 Ry
     estimated scf accuracy    <       0.00004548 Ry

     iteration # 21     ecut=    60.00 Ry     beta= 0.30
     Davidson diagonalization with overlap
     ethr =  8.34E-09,  avg # of iterations =  2.0

     negative rho (up, down):  3.464E-02 0.000E+00

     total cpu time spent up to now is      788.0 secs

     total energy              =   -5284.76943198 Ry
     estimated scf accuracy    <       0.00004526 Ry

     iteration # 22     ecut=    60.00 Ry     beta= 0.30
     Davidson diagonalization with overlap
     ethr =  8.31E-09,  avg # of iterations =  1.0

     negative rho (up, down):  3.464E-02 0.000E+00

     total cpu time spent up to now is      794.6 secs

     total energy              =   -5284.76943287 Ry
     estimated scf accuracy    <       0.00002052 Ry

     iteration # 23     ecut=    60.00 Ry     beta= 0.30
     Davidson diagonalization with overlap
     ethr =  3.77E-09,  avg # of iterations =  1.0

     negative rho (up, down):  3.464E-02 0.000E+00

     total cpu time spent up to now is      800.8 secs

     total energy              =   -5284.76943273 Ry
     estimated scf accuracy    <       0.00002072 Ry

     iteration # 24     ecut=    60.00 Ry     beta= 0.30
     Davidson diagonalization with overlap
     ethr =  3.77E-09,  avg # of iterations =  1.0

     negative rho (up, down):  3.464E-02 0.000E+00

     total cpu time spent up to now is      807.3 secs

     total energy              =   -5284.76943333 Ry
     estimated scf accuracy    <       0.00001239 Ry

     iteration # 25     ecut=    60.00 Ry     beta= 0.30
     Davidson diagonalization with overlap
     ethr =  2.27E-09,  avg # of iterations =  2.0

     negative rho (up, down):  3.464E-02 0.000E+00

     total cpu time spent up to now is      814.1 secs

     total energy              =   -5284.76943358 Ry
     estimated scf accuracy    <       0.00001715 Ry

     iteration # 26     ecut=    60.00 Ry     beta= 0.30
     Davidson diagonalization with overlap
     ethr =  2.27E-09,  avg # of iterations =  1.0

     negative rho (up, down):  3.464E-02 0.000E+00

     total cpu time spent up to now is      820.5 secs

     total energy              =   -5284.76943343 Ry
     estimated scf accuracy    <       0.00001875 Ry

     iteration # 27     ecut=    60.00 Ry     beta= 0.30
     Davidson diagonalization with overlap
     ethr =  2.27E-09,  avg # of iterations =  1.0

     negative rho (up, down):  3.464E-02 0.000E+00

     total cpu time spent up to now is      826.9 secs

     total energy              =   -5284.76943363 Ry
     estimated scf accuracy    <       0.00000927 Ry

     iteration # 28     ecut=    60.00 Ry     beta= 0.30
     Davidson diagonalization with overlap
     ethr =  1.70E-09,  avg # of iterations =  1.0

     negative rho (up, down):  3.464E-02 0.000E+00

     total cpu time spent up to now is      833.0 secs

     total energy              =   -5284.76943369 Ry
     estimated scf accuracy    <       0.00000792 Ry

     iteration # 29     ecut=    60.00 Ry     beta= 0.30
     Davidson diagonalization with overlap
     ethr =  1.45E-09,  avg # of iterations =  1.0

     negative rho (up, down):  3.464E-02 0.000E+00

     total cpu time spent up to now is      839.4 secs

     total energy              =   -5284.76943373 Ry
     estimated scf accuracy    <       0.00000775 Ry

     iteration # 30     ecut=    60.00 Ry     beta= 0.30
     Davidson diagonalization with overlap
     ethr =  1.42E-09,  avg # of iterations =  1.0

     negative rho (up, down):  3.464E-02 0.000E+00

     total cpu time spent up to now is      845.5 secs

     total energy              =   -5284.76943391 Ry
     estimated scf accuracy    <       0.00000560 Ry

     iteration # 31     ecut=    60.00 Ry     beta= 0.30
     Davidson diagonalization with overlap
     ethr =  1.03E-09,  avg # of iterations =  1.0

     negative rho (up, down):  3.464E-02 0.000E+00

     total cpu time spent up to now is      851.7 secs

     total energy              =   -5284.76943393 Ry
     estimated scf accuracy    <       0.00000413 Ry

     iteration # 32     ecut=    60.00 Ry     beta= 0.30
     Davidson diagonalization with overlap
     ethr =  7.58E-10,  avg # of iterations =  1.0

     negative rho (up, down):  3.464E-02 0.000E+00

     total cpu time spent up to now is      858.1 secs

     total energy              =   -5284.76943404 Ry
     estimated scf accuracy    <       0.00000159 Ry

     iteration # 33     ecut=    60.00 Ry     beta= 0.30
     Davidson diagonalization with overlap
     ethr =  2.92E-10,  avg # of iterations =  1.0

     negative rho (up, down):  3.464E-02 0.000E+00

     total cpu time spent up to now is      864.2 secs

     total energy              =   -5284.76943405 Ry
     estimated scf accuracy    <       0.00000045 Ry

     iteration # 34     ecut=    60.00 Ry     beta= 0.30
     Davidson diagonalization with overlap
     ethr =  8.28E-11,  avg # of iterations =  5.0

     negative rho (up, down):  3.464E-02 0.000E+00

     total cpu time spent up to now is      872.0 secs

     total energy              =   -5284.76943401 Ry
     estimated scf accuracy    <       0.00000194 Ry

     iteration # 35     ecut=    60.00 Ry     beta= 0.30
     Davidson diagonalization with overlap
     ethr =  8.28E-11,  avg # of iterations =  5.0

     negative rho (up, down):  3.464E-02 0.000E+00

     total cpu time spent up to now is      879.8 secs

     total energy              =   -5284.76943405 Ry
     estimated scf accuracy    <       0.00000158 Ry

     iteration # 36     ecut=    60.00 Ry     beta= 0.30
     Davidson diagonalization with overlap
     ethr =  8.28E-11,  avg # of iterations =  2.0

     negative rho (up, down):  3.464E-02 0.000E+00

     total cpu time spent up to now is      887.2 secs

     total energy              =   -5284.76943407 Ry
     estimated scf accuracy    <       0.00000155 Ry

     iteration # 37     ecut=    60.00 Ry     beta= 0.30
     Davidson diagonalization with overlap
     ethr =  8.28E-11,  avg # of iterations =  2.0

     negative rho (up, down):  3.464E-02 0.000E+00

     total cpu time spent up to now is      894.3 secs

     total energy              =   -5284.76943409 Ry
     estimated scf accuracy    <       0.00000053 Ry

     iteration # 38     ecut=    60.00 Ry     beta= 0.30
     Davidson diagonalization with overlap
     ethr =  8.28E-11,  avg # of iterations =  1.0

     negative rho (up, down):  3.464E-02 0.000E+00

     total cpu time spent up to now is      900.8 secs

     total energy              =   -5284.76943410 Ry
     estimated scf accuracy    <       0.00000025 Ry

     iteration # 39     ecut=    60.00 Ry     beta= 0.30
     Davidson diagonalization with overlap
     ethr =  4.63E-11,  avg # of iterations =  1.0

     negative rho (up, down):  3.464E-02 0.000E+00

     total cpu time spent up to now is      907.4 secs

     total energy              =   -5284.76943409 Ry
     estimated scf accuracy    <       0.00000028 Ry

     iteration # 40     ecut=    60.00 Ry     beta= 0.30
     Davidson diagonalization with overlap
     ethr =  4.63E-11,  avg # of iterations =  1.0

     negative rho (up, down):  3.464E-02 0.000E+00

     total cpu time spent up to now is      914.2 secs

     total energy              =   -5284.76943409 Ry
     estimated scf accuracy    <       0.00000077 Ry

     iteration # 41     ecut=    60.00 Ry     beta= 0.30
     Davidson diagonalization with overlap
     ethr =  4.63E-11,  avg # of iterations =  1.0

     negative rho (up, down):  3.464E-02 0.000E+00

     total cpu time spent up to now is      920.8 secs

     total energy              =   -5284.76943410 Ry
     estimated scf accuracy    <       0.00000020 Ry

     iteration # 42     ecut=    60.00 Ry     beta= 0.30
     Davidson diagonalization with overlap
     ethr =  3.73E-11,  avg # of iterations =  1.0

     negative rho (up, down):  3.464E-02 0.000E+00

     total cpu time spent up to now is      927.6 secs

     total energy              =   -5284.76943411 Ry
     estimated scf accuracy    <       0.00000011 Ry

     iteration # 43     ecut=    60.00 Ry     beta= 0.30
     Davidson diagonalization with overlap
     ethr =  2.03E-11,  avg # of iterations =  1.0

     negative rho (up, down):  3.464E-02 0.000E+00

     total cpu time spent up to now is      934.1 secs

     End of self-consistent calculation

          k = 0.0000 0.0000 0.0000 ( 46961 PWs)   bands (ev):

   -69.7113 -69.6979 -69.6487 -69.6437 -69.6380 -69.6098 -69.6062 -69.5908
   -69.5410 -69.5045 -69.3635 -62.1889 -62.1728 -62.1624 -62.1247 -62.1119
   -62.0674 -62.0373 -62.0274 -62.0120 -61.9308 -54.4272 -54.4023 -54.3008
   -54.1843 -54.1809 -54.1605 -54.0746 -54.0573 -54.0471 -54.0325 -53.9272
   -41.1338 -41.1270 -41.1137 -41.1020 -41.0967 -41.0785 -41.0669 -41.0569
   -41.0523 -41.0300 -41.0270 -41.0132 -41.0022 -40.9931 -40.9876 -40.9577
   -40.9559 -40.9507 -40.9411 -40.9341 -40.9325 -40.9257 -40.9150 -40.8966
   -40.8862 -40.8745 -40.8666 -40.8658 -40.8521 -40.8093 -40.7178 -40.6849
   -40.5822 -36.1549 -36.1297 -36.1086 -36.1022 -36.0885 -36.0609 -36.0462
   -36.0325 -36.0169 -36.0097 -36.0032 -35.9911 -35.9804 -35.9776 -35.9671
   -35.9557 -35.9437 -35.9295 -35.9228 -35.9116 -35.9060 -35.8968 -35.8925
   -35.8735 -35.8559 -35.8239 -35.8133 -35.8084 -35.7580 -35.7393 -30.8605
   -30.8133 -30.7217 -30.7015 -30.6738 -30.6611 -30.6533 -30.6491 -30.6183
   -30.6097 -30.5756 -30.5590 -30.5542 -30.5221 -30.5181 -30.5023 -30.4890
   -30.4745 -30.4697 -30.4603 -30.4510 -30.4281 -30.3970 -30.3781 -30.3428
   -30.3296 -30.3015 -30.2933 -30.2896 -30.2654 -30.2344 -30.2126 -30.1681
   -10.8594  -9.8131  -9.4036  -9.3190  -9.1903  -9.0620  -8.7277  -8.5190
    -8.4746  -8.4395  -8.3944  -8.2830  -8.2425  -8.1247  -8.1094  -7.9165
    -7.8417  -7.7978  -7.6993  -7.6418  -7.6034  -7.5784  -7.5570  -7.5019
    -7.4467  -7.4330  -7.2878  -7.2577  -7.0168  -6.9698  -6.9148  -6.5934
    -4.0503  -4.0290  -3.9949  -3.8285  -3.1049  -2.9721  -2.9335  -2.9013
    -2.7540  -2.7241  -2.6844  -2.6170  -2.5191  -2.4597  -2.4494  -2.3211
    -2.1797  -2.1737  -2.1143  -1.9625  -1.9430  -1.9006  -1.8610  -1.8032
    -1.7204  -1.6526  -1.5941  -1.5513  -1.5181  -1.5087  -1.4936  -1.4683
    -1.4658  -1.4518  -1.4443  -1.4320  -1.3994  -1.3547  -1.3098  -1.2998
    -1.2709  -1.2081  -1.1525  -1.1482  -1.1355  -1.1019  -1.0251  -1.0027
    -0.9906  -0.9615  -0.9086  -0.8976  -0.8579  -0.8429  -0.8207  -0.7977
    -0.7667  -0.7597  -0.7327  -0.7023  -0.6729  -0.6241  -0.5551  -0.5137
    -0.4640  -0.4068  -0.3816  -0.3325  -0.2884  -0.2749  -0.2342  -0.1902
    -0.1325  -0.1149  -0.0798   0.0311   0.0526   0.1916   0.2499   0.3269
     0.3749   0.4727   0.5589   0.5868   0.6275   0.6866   0.8015   0.8357
     0.9249   0.9456   1.1135   1.1223   1.2118   1.2767   1.3311   1.3547
     1.4743   1.4958   1.6302   1.6501   1.7072   1.7604   1.8851   1.9129
     2.0490   2.5357   2.6263   2.6500   2.6986   2.7188   2.7874   2.8276
     2.8646   2.9221   2.9636   2.9811   2.9984   3.0391   3.0793   3.1287
     3.1488   3.1783   3.2087   3.2238   3.2306   3.2594   3.2869   3.3178
     3.3244   3.3631   3.3802   3.4286   3.4485   3.5035   3.5237   3.5547
     3.5748   3.5971   3.6921   3.7107   3.7219   3.8200   3.8333   3.8779
     3.9067   3.9535   3.9762   3.9786   4.0248   4.0298   4.1051   4.1165
     4.1563   4.1906   4.2281   4.3203   4.3503   4.3764   4.4138   4.4242
     4.4650   4.4799   4.5007   4.5689   4.6157   4.6380   4.6594   4.7025

     the Fermi energy is     2.8771 ev

!    total energy              =   -5284.76943409 Ry
     estimated scf accuracy    <       0.00000003 Ry
     smearing contrib. (-TS)   =      -0.04578073 Ry
     internal energy E=F+TS    =   -5284.72365336 Ry

     The total energy is F=E-TS. E is the sum of the following terms:
     one-electron contribution =  -56010.02765194 Ry
     hartree contribution      =   28028.15108679 Ry
     xc contribution           =    -788.12713518 Ry
     ewald contribution        =   23682.87903302 Ry
     one-center paw contrib.   =    -197.59898605 Ry

     convergence has been achieved in  43 iterations

     negative rho (up, down):  3.464E-02 0.000E+00

     Forces acting on atoms (cartesian axes, Ry/au):

     atom    1 type  1   force =    -0.00030558    0.00041058   -0.01314871
     atom    2 type  1   force =    -0.00980883   -0.00641304    0.02055760
     atom    3 type  1   force =     0.00116216    0.00632022    0.00256763
     atom    4 type  1   force =    -0.00013131   -0.01667245    0.03170576
     atom    5 type  1   force =    -0.00435675    0.01175733    0.00296451
     atom    6 type  1   force =     0.00916984   -0.00286605    0.02776444
     atom    7 type  1   force =     0.00008512    0.00173212   -0.01783965
     atom    8 type  1   force =     0.00064695    0.00129146   -0.02395683
     atom    9 type  1   force =    -0.00118529   -0.00110298   -0.01611723
     atom   10 type  1   force =    -0.00149057    0.00152185   -0.00843347
     atom   11 type  1   force =     0.00310072    0.00305086   -0.00552124
     atom   12 type  2   force =     0.00645487    0.00591660   -0.01053134
     atom   13 type  2   force =    -0.00074901    0.00642867   -0.00516737
     atom   14 type  2   force =     0.02221443    0.00135623    0.01380663
     atom   15 type  2   force =    -0.01140317    0.00022460    0.11686036
     atom   16 type  2   force =     0.00724654   -0.00086815    0.09425639
     atom   17 type  2   force =    -0.00520759   -0.00540265    0.00609548
     atom   18 type  2   force =    -0.00028240    0.00774252    0.01390144
     atom   19 type  2   force =    -0.00614827    0.00978473   -0.02149417
     atom   20 type  2   force =     0.00038909   -0.00813345   -0.00578011
     atom   21 type  2   force =     0.00285066    0.02877248   -0.01154052
     atom   22 type  3   force =     0.00681771   -0.01208635   -0.01890664
     atom   23 type  3   force =    -0.02733105   -0.00847571    0.01611153
     atom   24 type  3   force =     0.03091080    0.01406203   -0.02018064
     atom   25 type  3   force =     0.01352342   -0.01484100    0.07319177
     atom   26 type  3   force =    -0.00444683    0.00898660    0.12439534
     atom   27 type  3   force =     0.00494547   -0.00868922    0.00842570
     atom   28 type  3   force =    -0.00911508   -0.00047340    0.03715750
     atom   29 type  3   force =    -0.00550397    0.00580333   -0.00485615
     atom   30 type  3   force =     0.00599300    0.00883207   -0.00642320
     atom   31 type  3   force =     0.00670548   -0.01006623   -0.01014762
     atom   32 type  3   force =    -0.01170596   -0.01420453   -0.01253010
     atom   33 type  4   force =     0.00146169   -0.00675378   -0.03798878
     atom   34 type  4   force =     0.01007339    0.01389386   -0.00609672
     atom   35 type  4   force =    -0.00150974   -0.01591639   -0.02605894
     atom   36 type  4   force =     0.00077987    0.01109669   -0.03481021
     atom   37 type  4   force =    -0.00247265    0.00115284    0.01706105
     atom   38 type  4   force =     0.00068575   -0.00350018    0.01414553
     atom   39 type  4   force =     0.00060041    0.00440205    0.00292697
     atom   40 type  4   force =    -0.00030070   -0.00547291    0.00355305
     atom   41 type  4   force =     0.00224625   -0.00534921    0.00638725
     atom   42 type  4   force =    -0.00096844   -0.00316436    0.00388840
     atom   43 type  4   force =    -0.00412372   -0.00682662    0.00946626
     atom   44 type  4   force =    -0.00106871   -0.00419170    0.00331469
     atom   45 type  4   force =     0.00381475    0.01114168   -0.04762476
     atom   46 type  4   force =     0.00667926    0.00166157   -0.04922461
     atom   47 type  4   force =    -0.01185058    0.00297021   -0.03373997
     atom   48 type  4   force =    -0.01658908   -0.00841287   -0.02571630
     atom   49 type  4   force =    -0.00280543    0.00042088    0.00617180
     atom   50 type  4   force =    -0.00145710   -0.00249482    0.00102486
     atom   51 type  4   force =     0.00140257   -0.00829052    0.01106825
     atom   52 type  4   force =     0.00224488   -0.00030481    0.00071251
     atom   53 type  4   force =    -0.00167590   -0.00643288   -0.02888927
     atom   54 type  4   force =    -0.00524074    0.01006985   -0.02696601
     atom   55 type  4   force =     0.00109499    0.00460052   -0.03005234
     atom   56 type  4   force =    -0.00032298   -0.00891209   -0.02993417
     atom   57 type  4   force =    -0.01552385    0.00882833   -0.02574923
     atom   58 type  4   force =    -0.00940582   -0.00660227   -0.03078734
     atom   59 type  4   force =     0.01491330    0.01447219   -0.03106989
     atom   60 type  4   force =     0.00199180   -0.00977782   -0.01680865
     atom   61 type  4   force =     0.00535661    0.00242898    0.00815087
     atom   62 type  4   force =     0.00250812   -0.00112100    0.01429676
     atom   63 type  4   force =    -0.00068050    0.00206029    0.00407161
     atom   64 type  4   force =    -0.00123764   -0.00313197    0.01021918
     atom   65 type  5   force =    -0.00166466    0.00375716   -0.01212893

     Total force =     0.073499     Total SCF correction =     0.000757
     Energy error            =      9.4E-03 Ry
     Gradient error          =      2.4E-02 Ry/Bohr

     number of scf cycles    =   2
     number of bfgs steps    =   1

     energy             old  =   -5284.7599954176 Ry
     energy             new  =   -5284.7694340874 Ry

     CASE: energy            _new < energy            _old

     new trust radius        =       0.0356902318 bohr
     new conv_thr            =       0.0000000024 Ry


ATOMIC_POSITIONS (angstrom)
Ti               8.3835400800        0.0385417785       15.7661283104
Ti               0.0291331002        8.3621570543       11.5803477355    0   0   0
Ti               2.0990596683        4.1962699405       13.6699051207
Ti               8.3795041056        2.0957563981        9.4724378689    0   0   0
Ti               8.3750099733        6.2687152092        9.4933225157    0   0   0
Ti               4.2170671874        6.2898439467        9.4911460380    0   0   0
Ti               8.3772019008        2.0813946217       13.6598607464
Ti               8.3843141290        6.2822169016       13.6695570008
Ti               4.2028791035        6.2802169213       13.6837055739
Ti               2.1152981757        6.2579685878       15.7954528162
Ti               6.2796970315        6.2693943202       15.7828124434
V                8.3740130782        4.1273920869       15.6553471469
V                4.2050792791        4.1365145179       15.6458866783
V                4.1453105473        4.2119457891       11.5975026988    0   0   0
V                2.1879867013        0.0520231596        9.5054883674    0   0   0
V                2.1522427348        4.1319303501        9.4904675789    0   0   0
V                2.1499186113        8.3441597204       13.6750255383
V                6.2937534073        4.2150351626       13.6922359574
V                4.1967993699        2.0653531525       13.5990132735
V                2.1048639148        6.2714192178       11.5723879270    0   0   0
V                6.3158808164        6.1438819511       11.5700667150    0   0   0
Cr               4.2073260064        0.0515582379       15.6722795002
Cr               0.1179128009        4.1786640750       11.5195623927    0   0   0
Cr               4.1681598842        8.2577799257       11.6615352591    0   0   0
Cr               6.1999882077        0.1106418811        9.6948923906    0   0   0
Cr               6.2007452456        4.0563627707        9.3394942948    0   0   0
Cr               6.2471567115        8.3087791370       13.6371661297
Cr               4.2149984025        2.0754774019        9.7444374941    0   0   0
Cr               2.1570269097        2.0854598145       15.5780738130
Cr               6.2305592948        2.0812686030       15.5480022273
Cr               2.0054620409        2.1149661174       11.6192682974    0   0   0
Cr               6.3992485267        2.2488278238       11.6549867199    0   0   0
C                8.3671464633        0.0123762133        9.4921945368    0   0   0
C                8.3685510870        4.1683341954        9.4949958325    0   0   0
C                4.2233794382        0.0660683478        9.5137772640    0   0   0
C                4.2071394793        4.1170355077        9.4900603783    0   0   0
C                8.3741321234       -0.0045627388       13.7743139843
C                8.3650048800        4.1697224625       13.7539754289
C                4.2054833836        0.0098432621       13.6618293811
C                4.2174733240        4.1343466728       13.7147773366
C                2.1577464727        0.0557432494       15.8702243189
C                2.1067546145        4.0989965679       15.8843654828
C                6.2271669175        0.0576756175       15.8529420564
C                6.2792139748        4.1019485534       15.8412190640
C                2.1521326937        0.0175132539       11.5903255372    0   0   0
C                2.1078429860        4.1683083653       11.5671868517    0   0   0
C                6.2417937451        0.0188099573       11.6002801854    0   0   0
C                6.3283074126        4.1569384024       11.5682471185    0   0   0
C                8.3732224787        2.1227915992       15.8680109207
C                8.3759028608        6.2263701270       15.9427324816
C                4.2022160220        2.0638821997       15.8119966858
C                4.2031070658        6.2416270726       15.8850674562
C                0.0147673152        2.1438801594       11.5939557114    0   0   0
C                0.0200697416        6.2277703895       11.5821679336    0   0   0
C                4.2182428542        2.0594943016       11.6100232202    0   0   0
C                4.2117703951        6.2583221129       11.5919858628    0   0   0
C                2.1713130363        2.0860319016        9.4919958919    0   0   0
C                2.1164500536        6.2753611976        9.5156635851    0   0   0
C                6.2203151227        2.0809934926        9.4961719556    0   0   0
C                6.2861737462        6.2618311600        9.5257047400    0   0   0
C                2.1399343665        2.0629791370       13.7145585256
C                2.1096307736        6.2933552494       13.7590857700
C                6.2630207367        2.0791023676       13.6892438504
C                6.2940516903        6.2591056720       13.7304216107
H                4.1814798512        0.0528140317       17.3052189412



     Writing config-only to output data dir ./tmp/hec3_CrTiV_f100_H_ads.save/ :
     XML data file
     NEW-OLD atomic charge density approx. for the potential

     Check: negative core charge=   -0.000005

     negative rho (up, down):  3.477E-02 0.000E+00

     total cpu time spent up to now is      944.4 secs

     Self-consistent Calculation

     iteration #  1     ecut=    60.00 Ry     beta= 0.30
     Davidson diagonalization with overlap
     ethr =  1.00E-06,  avg # of iterations = 10.0

     negative rho (up, down):  3.457E-02 0.000E+00

     total cpu time spent up to now is      958.1 secs

     total energy              =   -5284.64475739 Ry
     estimated scf accuracy    <       0.27096566 Ry

     iteration #  2     ecut=    60.00 Ry     beta= 0.30
     Davidson diagonalization with overlap
     ethr =  4.97E-05,  avg # of iterations = 13.0

     negative rho (up, down):  3.476E-02 0.000E+00

     total cpu time spent up to now is      972.7 secs

     total energy              =   -5283.70287731 Ry
     estimated scf accuracy    <      83.32426748 Ry

     iteration #  3     ecut=    60.00 Ry     beta= 0.30
     Davidson diagonalization with overlap
     ethr =  4.97E-05,  avg # of iterations = 16.0

     negative rho (up, down):  3.468E-02 0.000E+00

     total cpu time spent up to now is      988.0 secs

     total energy              =   -5284.75834613 Ry
     estimated scf accuracy    <       0.45366049 Ry

     iteration #  4     ecut=    60.00 Ry     beta= 0.30
     Davidson diagonalization with overlap
     ethr =  4.97E-05,  avg # of iterations =  1.0

     negative rho (up, down):  3.462E-02 0.000E+00

     total cpu time spent up to now is      994.5 secs

     total energy              =   -5284.76945955 Ry
     estimated scf accuracy    <       0.23474694 Ry

     iteration #  5     ecut=    60.00 Ry     beta= 0.30
     Davidson diagonalization with overlap
     ethr =  4.31E-05,  avg # of iterations =  1.0

     negative rho (up, down):  3.464E-02 0.000E+00

     total cpu time spent up to now is     1001.4 secs

     total energy              =   -5284.77362004 Ry
     estimated scf accuracy    <       0.02624524 Ry

     iteration #  6     ecut=    60.00 Ry     beta= 0.30
     Davidson diagonalization with overlap
     ethr =  4.82E-06,  avg # of iterations = 19.0

     negative rho (up, down):  3.466E-02 0.000E+00

     total cpu time spent up to now is     1016.4 secs

     total energy              =   -5284.77484347 Ry
     estimated scf accuracy    <       0.02008479 Ry

     iteration #  7     ecut=    60.00 Ry     beta= 0.30
     Davidson diagonalization with overlap
     ethr =  3.69E-06,  avg # of iterations =  2.0

     negative rho (up, down):  3.467E-02 0.000E+00

     total cpu time spent up to now is     1023.9 secs

     total energy              =   -5284.77545335 Ry
     estimated scf accuracy    <       0.00391202 Ry

     iteration #  8     ecut=    60.00 Ry     beta= 0.30
     Davidson diagonalization with overlap
     ethr =  7.18E-07,  avg # of iterations =  7.0

     negative rho (up, down):  3.469E-02 0.000E+00

     total cpu time spent up to now is     1033.6 secs

     total energy              =   -5284.77563258 Ry
     estimated scf accuracy    <       0.00332216 Ry

     iteration #  9     ecut=    60.00 Ry     beta= 0.30
     Davidson diagonalization with overlap
     ethr =  6.10E-07,  avg # of iterations =  2.0

     negative rho (up, down):  3.470E-02 0.000E+00

     total cpu time spent up to now is     1040.8 secs

     total energy              =   -5284.77568933 Ry
     estimated scf accuracy    <       0.00221398 Ry

     iteration # 10     ecut=    60.00 Ry     beta= 0.30
     Davidson diagonalization with overlap
     ethr =  4.06E-07,  avg # of iterations =  2.0

     negative rho (up, down):  3.471E-02 0.000E+00

     total cpu time spent up to now is     1048.1 secs

     total energy              =   -5284.77571578 Ry
     estimated scf accuracy    <       0.00162355 Ry

     iteration # 11     ecut=    60.00 Ry     beta= 0.30
     Davidson diagonalization with overlap
     ethr =  2.98E-07,  avg # of iterations =  2.0

     negative rho (up, down):  3.472E-02 0.000E+00

     total cpu time spent up to now is     1055.5 secs

     total energy              =   -5284.77575639 Ry
     estimated scf accuracy    <       0.00072591 Ry

     iteration # 12     ecut=    60.00 Ry     beta= 0.30
     Davidson diagonalization with overlap
     ethr =  1.33E-07,  avg # of iterations =  2.0

     negative rho (up, down):  3.473E-02 0.000E+00

     total cpu time spent up to now is     1063.2 secs

     total energy              =   -5284.77574691 Ry
     estimated scf accuracy    <       0.00070163 Ry

     iteration # 13     ecut=    60.00 Ry     beta= 0.30
     Davidson diagonalization with overlap
     ethr =  1.29E-07,  avg # of iterations =  3.0

     negative rho (up, down):  3.473E-02 0.000E+00

     total cpu time spent up to now is     1070.5 secs

     total energy              =   -5284.77569840 Ry
     estimated scf accuracy    <       0.00378986 Ry

     iteration # 14     ecut=    60.00 Ry     beta= 0.30
     Davidson diagonalization with overlap
     ethr =  1.29E-07,  avg # of iterations =  1.0

     negative rho (up, down):  3.474E-02 0.000E+00

     total cpu time spent up to now is     1076.8 secs

     total energy              =   -5284.77577605 Ry
     estimated scf accuracy    <       0.00083183 Ry

     iteration # 15     ecut=    60.00 Ry     beta= 0.30
     Davidson diagonalization with overlap
     ethr =  1.29E-07,  avg # of iterations =  1.0

     negative rho (up, down):  3.474E-02 0.000E+00

     total cpu time spent up to now is     1083.5 secs

     total energy              =   -5284.77577675 Ry
     estimated scf accuracy    <       0.00059946 Ry

     iteration # 16     ecut=    60.00 Ry     beta= 0.30
     Davidson diagonalization with overlap
     ethr =  1.10E-07,  avg # of iterations =  1.0

     negative rho (up, down):  3.474E-02 0.000E+00

     total cpu time spent up to now is     1089.9 secs

     total energy              =   -5284.77577146 Ry
     estimated scf accuracy    <       0.00079616 Ry

     iteration # 17     ecut=    60.00 Ry     beta= 0.30
     Davidson diagonalization with overlap
     ethr =  1.10E-07,  avg # of iterations =  1.0

     negative rho (up, down):  3.475E-02 0.000E+00

     total cpu time spent up to now is     1097.0 secs

     total energy              =   -5284.77578167 Ry
     estimated scf accuracy    <       0.00036956 Ry

     iteration # 18     ecut=    60.00 Ry     beta= 0.30
     Davidson diagonalization with overlap
     ethr =  6.78E-08,  avg # of iterations =  1.0

     negative rho (up, down):  3.475E-02 0.000E+00

     total cpu time spent up to now is     1104.1 secs

     total energy              =   -5284.77578843 Ry
     estimated scf accuracy    <       0.00020168 Ry

     iteration # 19     ecut=    60.00 Ry     beta= 0.30
     Davidson diagonalization with overlap
     ethr =  3.70E-08,  avg # of iterations =  1.0

     negative rho (up, down):  3.475E-02 0.000E+00

     total cpu time spent up to now is     1110.8 secs

     total energy              =   -5284.77579206 Ry
     estimated scf accuracy    <       0.00018631 Ry

     iteration # 20     ecut=    60.00 Ry     beta= 0.30
     Davidson diagonalization with overlap
     ethr =  3.42E-08,  avg # of iterations =  1.0

     negative rho (up, down):  3.475E-02 0.000E+00

     total cpu time spent up to now is     1117.2 secs

     total energy              =   -5284.77579538 Ry
     estimated scf accuracy    <       0.00005126 Ry

     iteration # 21     ecut=    60.00 Ry     beta= 0.30
     Davidson diagonalization with overlap
     ethr =  9.41E-09,  avg # of iterations =  1.0

     negative rho (up, down):  3.475E-02 0.000E+00

     total cpu time spent up to now is     1123.8 secs

     total energy              =   -5284.77579646 Ry
     estimated scf accuracy    <       0.00003727 Ry

     iteration # 22     ecut=    60.00 Ry     beta= 0.30
     Davidson diagonalization with overlap
     ethr =  6.84E-09,  avg # of iterations =  1.0

     negative rho (up, down):  3.475E-02 0.000E+00

     total cpu time spent up to now is     1130.0 secs

     total energy              =   -5284.77579754 Ry
     estimated scf accuracy    <       0.00001380 Ry

     iteration # 23     ecut=    60.00 Ry     beta= 0.30
     Davidson diagonalization with overlap
     ethr =  2.53E-09,  avg # of iterations =  2.0

     negative rho (up, down):  3.475E-02 0.000E+00

     total cpu time spent up to now is     1136.6 secs

     total energy              =   -5284.77579731 Ry
     estimated scf accuracy    <       0.00001125 Ry

     iteration # 24     ecut=    60.00 Ry     beta= 0.30
     Davidson diagonalization with overlap
     ethr =  2.06E-09,  avg # of iterations =  2.0

     negative rho (up, down):  3.475E-02 0.000E+00

     total cpu time spent up to now is     1143.1 secs

     total energy              =   -5284.77579684 Ry
     estimated scf accuracy    <       0.00006952 Ry

     iteration # 25     ecut=    60.00 Ry     beta= 0.30
     Davidson diagonalization with overlap
     ethr =  2.06E-09,  avg # of iterations =  1.0

     negative rho (up, down):  3.475E-02 0.000E+00

     total cpu time spent up to now is     1149.0 secs

     total energy              =   -5284.77579785 Ry
     estimated scf accuracy    <       0.00002066 Ry

     iteration # 26     ecut=    60.00 Ry     beta= 0.30
     Davidson diagonalization with overlap
     ethr =  2.06E-09,  avg # of iterations =  1.0

     negative rho (up, down):  3.475E-02 0.000E+00

     total cpu time spent up to now is     1155.4 secs

     total energy              =   -5284.77579767 Ry
     estimated scf accuracy    <       0.00002135 Ry

     iteration # 27     ecut=    60.00 Ry     beta= 0.30
     Davidson diagonalization with overlap
     ethr =  2.06E-09,  avg # of iterations =  1.0

     negative rho (up, down):  3.475E-02 0.000E+00

     total cpu time spent up to now is     1161.8 secs

     total energy              =   -5284.77579786 Ry
     estimated scf accuracy    <       0.00001347 Ry

     iteration # 28     ecut=    60.00 Ry     beta= 0.30
     Davidson diagonalization with overlap
     ethr =  2.06E-09,  avg # of iterations =  1.0

     negative rho (up, down):  3.475E-02 0.000E+00

     total cpu time spent up to now is     1167.8 secs

     total energy              =   -5284.77579794 Ry
     estimated scf accuracy    <       0.00001053 Ry

     iteration # 29     ecut=    60.00 Ry     beta= 0.30
     Davidson diagonalization with overlap
     ethr =  1.93E-09,  avg # of iterations =  1.0

     negative rho (up, down):  3.475E-02 0.000E+00

     total cpu time spent up to now is     1174.1 secs

     total energy              =   -5284.77579805 Ry
     estimated scf accuracy    <       0.00000978 Ry

     iteration # 30     ecut=    60.00 Ry     beta= 0.30
     Davidson diagonalization with overlap
     ethr =  1.79E-09,  avg # of iterations =  1.0

     negative rho (up, down):  3.475E-02 0.000E+00

     total cpu time spent up to now is     1180.5 secs

     total energy              =   -5284.77579826 Ry
     estimated scf accuracy    <       0.00000534 Ry

     iteration # 31     ecut=    60.00 Ry     beta= 0.30
     Davidson diagonalization with overlap
     ethr =  9.80E-10,  avg # of iterations =  1.0

     negative rho (up, down):  3.475E-02 0.000E+00

     total cpu time spent up to now is     1186.6 secs

     total energy              =   -5284.77579830 Ry
     estimated scf accuracy    <       0.00000384 Ry

     iteration # 32     ecut=    60.00 Ry     beta= 0.30
     Davidson diagonalization with overlap
     ethr =  7.05E-10,  avg # of iterations =  1.0

     negative rho (up, down):  3.475E-02 0.000E+00

     total cpu time spent up to now is     1192.9 secs

     total energy              =   -5284.77579841 Ry
     estimated scf accuracy    <       0.00000174 Ry

     iteration # 33     ecut=    60.00 Ry     beta= 0.30
     Davidson diagonalization with overlap
     ethr =  3.19E-10,  avg # of iterations =  1.0

     negative rho (up, down):  3.475E-02 0.000E+00

     total cpu time spent up to now is     1198.9 secs

     total energy              =   -5284.77579844 Ry
     estimated scf accuracy    <       0.00000040 Ry

     iteration # 34     ecut=    60.00 Ry     beta= 0.30
     Davidson diagonalization with overlap
     ethr =  7.41E-11,  avg # of iterations =  5.0

     negative rho (up, down):  3.475E-02 0.000E+00

     total cpu time spent up to now is     1206.0 secs

     total energy              =   -5284.77579840 Ry
     estimated scf accuracy    <       0.00000379 Ry

     iteration # 35     ecut=    60.00 Ry     beta= 0.30
     Davidson diagonalization with overlap
     ethr =  7.41E-11,  avg # of iterations =  2.0

     negative rho (up, down):  3.475E-02 0.000E+00

     total cpu time spent up to now is     1212.8 secs

     total energy              =   -5284.77579845 Ry
     estimated scf accuracy    <       0.00000154 Ry

     iteration # 36     ecut=    60.00 Ry     beta= 0.30
     Davidson diagonalization with overlap
     ethr =  7.41E-11,  avg # of iterations =  1.0

     negative rho (up, down):  3.475E-02 0.000E+00

     total cpu time spent up to now is     1219.1 secs

     total energy              =   -5284.77579847 Ry
     estimated scf accuracy    <       0.00000043 Ry

     iteration # 37     ecut=    60.00 Ry     beta= 0.30
     Davidson diagonalization with overlap
     ethr =  7.41E-11,  avg # of iterations =  2.0

     negative rho (up, down):  3.475E-02 0.000E+00

     total cpu time spent up to now is     1225.3 secs

     total energy              =   -5284.77579847 Ry
     estimated scf accuracy    <       0.00000044 Ry

     iteration # 38     ecut=    60.00 Ry     beta= 0.30
     Davidson diagonalization with overlap
     ethr =  7.41E-11,  avg # of iterations =  1.0

     negative rho (up, down):  3.475E-02 0.000E+00

     total cpu time spent up to now is     1231.5 secs

     total energy              =   -5284.77579847 Ry
     estimated scf accuracy    <       0.00000038 Ry

     iteration # 39     ecut=    60.00 Ry     beta= 0.30
     Davidson diagonalization with overlap
     ethr =  6.96E-11,  avg # of iterations =  1.0

     negative rho (up, down):  3.475E-02 0.000E+00

     total cpu time spent up to now is     1237.6 secs

     total energy              =   -5284.77579847 Ry
     estimated scf accuracy    <       0.00000049 Ry

     iteration # 40     ecut=    60.00 Ry     beta= 0.30
     Davidson diagonalization with overlap
     ethr =  6.96E-11,  avg # of iterations =  2.0

     negative rho (up, down):  3.475E-02 0.000E+00

     total cpu time spent up to now is     1244.5 secs

     total energy              =   -5284.77579847 Ry
     estimated scf accuracy    <       0.00000111 Ry

     iteration # 41     ecut=    60.00 Ry     beta= 0.30
     Davidson diagonalization with overlap
     ethr =  6.96E-11,  avg # of iterations =  1.0

     negative rho (up, down):  3.475E-02 0.000E+00

     total cpu time spent up to now is     1250.4 secs

     total energy              =   -5284.77579848 Ry
     estimated scf accuracy    <       0.00000040 Ry

     iteration # 42     ecut=    60.00 Ry     beta= 0.30
     Davidson diagonalization with overlap
     ethr =  6.96E-11,  avg # of iterations =  1.0

     negative rho (up, down):  3.475E-02 0.000E+00

     total cpu time spent up to now is     1256.4 secs

     total energy              =   -5284.77579849 Ry
     estimated scf accuracy    <       0.00000024 Ry

     iteration # 43     ecut=    60.00 Ry     beta= 0.30
     Davidson diagonalization with overlap
     ethr =  4.33E-11,  avg # of iterations =  1.0

     negative rho (up, down):  3.475E-02 0.000E+00

     total cpu time spent up to now is     1262.6 secs

     total energy              =   -5284.77579849 Ry
     estimated scf accuracy    <       0.00000008 Ry

     iteration # 44     ecut=    60.00 Ry     beta= 0.30
     Davidson diagonalization with overlap
     ethr =  1.48E-11,  avg # of iterations =  1.0

     negative rho (up, down):  3.475E-02 0.000E+00

     total cpu time spent up to now is     1268.8 secs

     total energy              =   -5284.77579849 Ry
     estimated scf accuracy    <       0.00000016 Ry

     iteration # 45     ecut=    60.00 Ry     beta= 0.30
     Davidson diagonalization with overlap
     ethr =  1.48E-11,  avg # of iterations =  1.0

     negative rho (up, down):  3.475E-02 0.000E+00

     total cpu time spent up to now is     1275.1 secs

     total energy              =   -5284.77579849 Ry
     estimated scf accuracy    <       0.00000030 Ry

     iteration # 46     ecut=    60.00 Ry     beta= 0.30
     Davidson diagonalization with overlap
     ethr =  1.48E-11,  avg # of iterations =  1.0

     negative rho (up, down):  3.475E-02 0.000E+00

     total cpu time spent up to now is     1281.0 secs

     total energy              =   -5284.77579850 Ry
     estimated scf accuracy    <       0.00000003 Ry

     iteration # 47     ecut=    60.00 Ry     beta= 0.30
     Davidson diagonalization with overlap
     ethr =  4.94E-12,  avg # of iterations =  1.0

     negative rho (up, down):  3.475E-02 0.000E+00

     total cpu time spent up to now is     1287.2 secs

     total energy              =   -5284.77579850 Ry
     estimated scf accuracy    <       0.00000002 Ry

     iteration # 48     ecut=    60.00 Ry     beta= 0.30
     Davidson diagonalization with overlap
     ethr =  3.38E-12,  avg # of iterations =  1.0

     negative rho (up, down):  3.475E-02 0.000E+00

     total cpu time spent up to now is     1293.4 secs

     total energy              =   -5284.77579850 Ry
     estimated scf accuracy    <       0.00000001 Ry

     iteration # 49     ecut=    60.00 Ry     beta= 0.30
     Davidson diagonalization with overlap
     ethr =  2.49E-12,  avg # of iterations =  2.0

     negative rho (up, down):  3.475E-02 0.000E+00

     total cpu time spent up to now is     1300.4 secs

     total energy              =   -5284.77579850 Ry
     estimated scf accuracy    <       0.00000002 Ry

     iteration # 50     ecut=    60.00 Ry     beta= 0.30
     Davidson diagonalization with overlap
     ethr =  2.49E-12,  avg # of iterations =  4.0

     negative rho (up, down):  3.475E-02 0.000E+00

     total cpu time spent up to now is     1308.4 secs

     total energy              =   -5284.77579850 Ry
     estimated scf accuracy    <       0.00000007 Ry

     iteration # 51     ecut=    60.00 Ry     beta= 0.30
     Davidson diagonalization with overlap
     ethr =  2.49E-12,  avg # of iterations =  4.0

     negative rho (up, down):  3.475E-02 0.000E+00

     total cpu time spent up to now is     1316.2 secs

     total energy              =   -5284.77579850 Ry
     estimated scf accuracy    <       0.00000002 Ry

     iteration # 52     ecut=    60.00 Ry     beta= 0.30
     Davidson diagonalization with overlap
     ethr =  2.49E-12,  avg # of iterations =  2.0

     negative rho (up, down):  3.475E-02 0.000E+00

     total cpu time spent up to now is     1323.4 secs

     total energy              =   -5284.77579849 Ry
     estimated scf accuracy    <       0.00000002 Ry

     iteration # 53     ecut=    60.00 Ry     beta= 0.30
     Davidson diagonalization with overlap
