
     Program PWSCF v.7.3.1 starts on 21Jul2026 at  9:10: 1 

     This program is part of the open-source Quantum ESPRESSO suite
     for quantum simulation of materials; please cite
         "P. Giannozzi et al., J. Phys.:Condens. Matter 21 395502 (2009);
         "P. Giannozzi et al., J. Phys.:Condens. Matter 29 465901 (2017);
         "P. Giannozzi et al., J. Chem. Phys. 152 154105 (2020);
          URL http://www.quantum-espresso.org", 
     in publications or presentations arising from this work. More details at
     http://www.quantum-espresso.org/quote

     Parallel version (MPI & OpenMP), running on       1 processor cores
     Number of MPI processes:                 1
     Threads/MPI process:                     1

     MPI processes distributed on     1 nodes
     42214 MiB available memory on the printing compute node when the environment starts
 
     Reading input from relax.in
Warning: card &CELL ignored
Warning: card / ignored
Warning: card &FCP ignored
Warning: card / ignored
Warning: card &RISM ignored
Warning: card / ignored

     Current dimensions of program PWSCF are:
     Max number of different atomic species (ntypx) = 10
     Max number of k-points (npk) =  40000
     Max angular momentum in pseudopotentials (lmaxx) =  4
     file C.pbe-n-kjpaw_psl.1.0.0.UPF: wavefunction(s)  2S 2P renormalized

     gamma-point specific algorithms are used
 
     Subspace diagonalization in iterative solution of the eigenvalue problem:
     a serial algorithm will be used

 
     G-vector sticks info
     --------------------
     sticks:   dense  smooth     PW     G-vecs:    dense   smooth      PW
     Sum        9573    4781   1201              2123491   750579   93921
 
     Using Slab Decomposition
 


     bravais-lattice index     =            0
     lattice parameter (alat)  =      15.8284  a.u.
     unit-cell volume          =   11958.4964 (a.u.)^3
     number of atoms/cell      =           64
     number of atomic types    =            4
     number of electrons       =       544.00
     number of Kohn-Sham states=          326
     kinetic-energy cutoff     =      60.0000  Ry
     charge density cutoff     =     480.0000  Ry
     scf convergence threshold =      1.0E-07
     mixing beta               =       0.3000
     number of iterations used =            8  plain     mixing
     energy convergence thresh.=      1.0E-04
     force convergence thresh. =      1.0E-02
     Exchange-correlation= SLA  PW   PBX  PBC
                           (   1   4   3   4   0   0   0)
     nstep                     =           80


     GPU acceleration is ACTIVE.  1 visible GPUs per MPI rank


     celldm(1)=  15.828379  celldm(2)=   0.000000  celldm(3)=   0.000000
     celldm(4)=   0.000000  celldm(5)=   0.000000  celldm(6)=   0.000000

     crystal axes: (cart. coord. in units of alat)
               a(1) = (   1.000000   0.000000   0.000000 )  
               a(2) = (   0.000556   0.999437   0.000000 )  
               a(3) = (   0.001922  -0.002259   3.017254 )  

     reciprocal axes: (cart. coord. in units 2 pi/alat)
               b(1) = (  1.000000 -0.000557 -0.000637 )  
               b(2) = ( -0.000000  1.000564  0.000749 )  
               b(3) = (  0.000000  0.000000  0.331427 )  


     PseudoPot. # 1 for Ti read from file:
     /home/jonglee69/software/qe_pseudo/active/ti_pbe_v1.4.uspp.F.UPF
     MD5 check sum: 88a00a6731bd790ddea75d31a80cb452
     Pseudo is Ultrasoft + core correction, Zval = 12.0
     Generated by new atomic code, or converted to UPF format
     Using radial grid of  851 points,  6 beta functions with: 
                l(1) =   0
                l(2) =   0
                l(3) =   1
                l(4) =   1
                l(5) =   2
                l(6) =   2
     Q(r) pseudized with  6 coefficients,  rinner =    1.000   1.000   1.000
                                                       1.000   1.000

     PseudoPot. # 2 for V  read from file:
     /home/jonglee69/software/qe_pseudo/active/v_pbe_v1.4.uspp.F.UPF
     MD5 check sum: 22b79981416ebb76fdaf5b1b8640f6fb
     Pseudo is Ultrasoft + core correction, Zval = 13.0
     Generated by new atomic code, or converted to UPF format
     Using radial grid of  853 points,  6 beta functions with: 
                l(1) =   0
                l(2) =   0
                l(3) =   1
                l(4) =   1
                l(5) =   2
                l(6) =   2
     Q(r) pseudized with  8 coefficients,  rinner =    1.100   1.100   1.100
                                                       1.100   1.100

     PseudoPot. # 3 for Cr read from file:
     /home/jonglee69/software/qe_pseudo/active/cr_pbe_v1.5.uspp.F.UPF
     MD5 check sum: 0d52af634a40206e4dee301ad30da4bf
     Pseudo is Ultrasoft + core correction, Zval = 14.0
     Generated by new atomic code, or converted to UPF format
     Using radial grid of  857 points,  6 beta functions with: 
                l(1) =   0
                l(2) =   0
                l(3) =   1
                l(4) =   1
                l(5) =   2
                l(6) =   2
     Q(r) pseudized with  8 coefficients,  rinner =    0.950   0.950   0.950
                                                       0.950   0.950

     PseudoPot. # 4 for C  read from file:
     /home/jonglee69/software/qe_pseudo/active/C.pbe-n-kjpaw_psl.1.0.0.UPF
     MD5 check sum: 5d2aebdfa2cae82b50a7e79e9516da0f
     Pseudo is Projector augmented-wave + core cor, Zval =  4.0
     Generated using "atomic" code by A. Dal Corso  v.5.1
     Shape of augmentation charge: PSQ
     Using radial grid of 1073 points,  4 beta functions with: 
                l(1) =   0
                l(2) =   0
                l(3) =   1
                l(4) =   1
     Q(r) pseudized with 0 coefficients 


     atomic species   valence    mass     pseudopotential
     Ti               12.00    47.86700     Ti( 1.00)
     V                13.00    50.94150     V ( 1.00)
     Cr               14.00    51.99610     Cr( 1.00)
     C                 4.00    12.01100     C ( 1.00)

     No symmetry found



   Cartesian axes

     site n.     atom                  positions (alat units)
         1        Ti     tau(   1) = (   1.0008556   0.0044941   1.8865467  )
         2        Ti     tau(   2) = (   0.0034782   0.9983452   1.3825601  )
         3        Ti     tau(   3) = (   0.2501210   0.4996831   1.6316835  )
         4        Ti     tau(   4) = (   1.0004162   0.2502092   1.1308999  )
         5        Ti     tau(   5) = (   0.9998797   0.7484124   1.1333933  )
         6        Ti     tau(   6) = (   0.5034692   0.7509349   1.1331335  )
         7        Ti     tau(   7) = (   0.9997418   0.2486624   1.6343948  )
         8        Ti     tau(   8) = (   1.0007562   0.7485160   1.6363276  )
         9        Ti     tau(   9) = (   0.5022352   0.7485654   1.6348412  )
        10        Ti     tau(  10) = (   0.2534499   0.7477555   1.8871439  )
        11        Ti     tau(  11) = (   0.7488198   0.7489432   1.8852372  )
        12        V      tau(  12) = (   0.9985998   0.4916121   1.8725938  )
        13        V      tau(  13) = (   0.5019522   0.4923099   1.8692442  )
        14        V      tau(  14) = (   0.4949023   0.5028578   1.3846082  )
        15        V      tau(  15) = (   0.2612204   0.0062110   1.1348458  )
        16        V      tau(  16) = (   0.2569530   0.4933049   1.1330525  )
        17        V      tau(  17) = (   0.2507268   0.9963414   1.6293701  )
        18        V      tau(  18) = (   0.7514178   0.5016981   1.6326179  )
        19        V      tau(  19) = (   0.5015666   0.2488251   1.6253257  )
        20        V      tau(  20) = (   0.2512965   0.7487352   1.3816098  )
        21        V      tau(  21) = (   0.7540434   0.7335087   1.3813327  )
        22        Cr     tau(  22) = (   0.5012199   0.0083643   1.8583660  )
        23        Cr     tau(  23) = (   0.0140774   0.4988843   1.3753030  )
        24        Cr     tau(  24) = (   0.4976303   0.9858838   1.3922529  )
        25        Cr     tau(  25) = (   0.7402072   0.0132094   1.1574584  )
        26        Cr     tau(  26) = (   0.7402975   0.4842830   1.1150280  )
        27        Cr     tau(  27) = (   0.7534385   0.9917727   1.6234649  )
        28        Cr     tau(  28) = (   0.5032222   0.2477881   1.1633736  )
        29        Cr     tau(  29) = (   0.2601524   0.2472703   1.8604565  )
        30        Cr     tau(  30) = (   0.7415584   0.2463621   1.8573421  )
        31        Cr     tau(  31) = (   0.2394291   0.2525026   1.3872068  )
        32        Cr     tau(  32) = (   0.7639965   0.2684841   1.3914711  )
        33        C      tau(  33) = (   0.9989409   0.0014776   1.1332587  )
        34        C      tau(  34) = (   0.9991086   0.4976511   1.1335931  )
        35        C      tau(  35) = (   0.5042228   0.0078878   1.1358354  )
        36        C      tau(  36) = (   0.5022840   0.4915266   1.1330039  )
        37        C      tau(  37) = (   1.0002939  -0.0011305   1.6409430  )
        38        C      tau(  38) = (   0.9984315   0.4983304   1.6394056  )
        39        C      tau(  39) = (   0.5024535   0.0015178   1.6348427  )
        40        C      tau(  40) = (   0.5033580   0.4951746   1.6364760  )
        41        C      tau(  41) = (   0.2595700   0.0070581   1.8936042  )
        42        C      tau(  42) = (   0.2522824   0.4895161   1.8959448  )
        43        C      tau(  43) = (   0.7426081   0.0078872   1.8918871  )
        44        C      tau(  44) = (   0.7494331   0.4903887   1.8910830  )
        45        C      tau(  45) = (   0.2569398   0.0020909   1.3837513  )
        46        C      tau(  46) = (   0.2516522   0.4976480   1.3809888  )
        47        C      tau(  47) = (   0.7451983   0.0022457   1.3849398  )
        48        C      tau(  48) = (   0.7555270   0.4962905   1.3811154  )
        49        C      tau(  49) = (   1.0000192   0.2531374   1.8941343  )
        50        C      tau(  50) = (   1.0005974   0.7437154   1.9039221  )
        51        C      tau(  51) = (   0.5012231   0.2467308   1.8843456  )
        52        C      tau(  52) = (   0.5015511   0.7490404   1.8959225  )
        53        C      tau(  53) = (   0.0017630   0.2559546   1.3841847  )
        54        C      tau(  54) = (   0.0023961   0.7435240   1.3827774  )
        55        C      tau(  55) = (   0.5036096   0.2458799   1.3861030  )
        56        C      tau(  56) = (   0.5028369   0.7471716   1.3839495  )
        57        C      tau(  57) = (   0.2592298   0.2490482   1.1332349  )
        58        C      tau(  58) = (   0.2526798   0.7492058   1.1360606  )
        59        C      tau(  59) = (   0.7426340   0.2484466   1.1337335  )
        60        C      tau(  60) = (   0.7504967   0.7475905   1.1372594  )
        61        C      tau(  61) = (   0.2540808   0.2456886   1.6350765  )
        62        C      tau(  62) = (   0.2511502   0.7513785   1.6392214  )
        63        C      tau(  63) = (   0.7476755   0.2474326   1.6331092  )
        64        C      tau(  64) = (   0.7520712   0.7474699   1.6367642  )

     number of k points=     1  Marzari-Vanderbilt smearing, width (Ry)=  0.0200
                       cart. coord. in units 2pi/alat
        k(    1) = (   0.0000000   0.0000000   0.0000000), wk =   2.0000000

     Dense  grid:  1061746 G-vectors     FFT dimensions: ( 120, 120, 360)

     Smooth grid:   375290 G-vectors     FFT dimensions: (  80,  80, 240)

     Estimated max dynamical RAM per process >       6.12 GB

     Check: negative core charge=   -0.000005

     Initial potential from superposition of free atoms

     starting charge     521.9857, renormalised to     544.0000

     negative rho (up, down):  3.230E-02 0.000E+00
     Starting wfcs are  448 randomized atomic wfcs
     Checking if some PAW data can be deallocated... 

     total cpu time spent up to now is       13.4 secs

     Self-consistent Calculation

     iteration #  1     ecut=    60.00 Ry     beta= 0.30
     Davidson diagonalization with overlap
     ethr =  1.00E-02,  avg # of iterations =  2.0

     negative rho (up, down):  4.523E-02 0.000E+00

     total cpu time spent up to now is       28.7 secs

     total energy              =   -5221.26997359 Ry
     estimated scf accuracy    <     175.78573342 Ry

     iteration #  2     ecut=    60.00 Ry     beta= 0.30
     Davidson diagonalization with overlap
     ethr =  1.00E-02,  avg # of iterations =  7.0

     negative rho (up, down):  3.865E-02 0.000E+00

     total cpu time spent up to now is       40.2 secs

     total energy              =   -5156.05400581 Ry
     estimated scf accuracy    <    2249.79187758 Ry

     iteration #  3     ecut=    60.00 Ry     beta= 0.30
     Davidson diagonalization with overlap
     ethr =  1.00E-02,  avg # of iterations =  7.0

     negative rho (up, down):  3.162E-02 0.000E+00

     total cpu time spent up to now is       51.6 secs

     total energy              =   -5212.53611889 Ry
     estimated scf accuracy    <    3625.69300803 Ry

     iteration #  4     ecut=    60.00 Ry     beta= 0.30
     Davidson diagonalization with overlap
     ethr =  1.00E-02,  avg # of iterations =  7.0

     negative rho (up, down):  3.056E-02 0.000E+00

     total cpu time spent up to now is       62.5 secs

     total energy              =   -5280.58299430 Ry
     estimated scf accuracy    <     109.38923790 Ry

     iteration #  5     ecut=    60.00 Ry     beta= 0.30
     Davidson diagonalization with overlap
     ethr =  1.00E-02,  avg # of iterations =  1.0

     negative rho (up, down):  3.122E-02 0.000E+00

     total cpu time spent up to now is       69.1 secs

     total energy              =   -5284.08509452 Ry
     estimated scf accuracy    <      20.83064044 Ry

     iteration #  6     ecut=    60.00 Ry     beta= 0.30
     Davidson diagonalization with overlap
     ethr =  3.83E-03,  avg # of iterations =  2.0

     negative rho (up, down):  3.235E-02 0.000E+00

     total cpu time spent up to now is       76.4 secs

     total energy              =   -5284.10764599 Ry
     estimated scf accuracy    <      13.96727825 Ry

     iteration #  7     ecut=    60.00 Ry     beta= 0.30
     Davidson diagonalization with overlap
     ethr =  2.57E-03,  avg # of iterations =  2.0

     negative rho (up, down):  3.398E-02 0.000E+00

     total cpu time spent up to now is       83.4 secs

     total energy              =   -5283.23520106 Ry
     estimated scf accuracy    <      11.64623940 Ry

     iteration #  8     ecut=    60.00 Ry     beta= 0.30
     Davidson diagonalization with overlap
     ethr =  2.14E-03,  avg # of iterations =  4.0

     negative rho (up, down):  3.524E-02 0.000E+00

     total cpu time spent up to now is       91.7 secs

     total energy              =   -5282.62830525 Ry
     estimated scf accuracy    <      15.87452860 Ry

     iteration #  9     ecut=    60.00 Ry     beta= 0.30
     Davidson diagonalization with overlap
     ethr =  2.14E-03,  avg # of iterations =  4.0

     negative rho (up, down):  3.543E-02 0.000E+00

     total cpu time spent up to now is       99.7 secs

     total energy              =   -5282.92490875 Ry
     estimated scf accuracy    <      18.10616101 Ry

     iteration # 10     ecut=    60.00 Ry     beta= 0.30
     Davidson diagonalization with overlap
     ethr =  2.14E-03,  avg # of iterations =  2.0

     negative rho (up, down):  3.627E-02 0.000E+00

     total cpu time spent up to now is      106.9 secs

     total energy              =   -5283.28367183 Ry
     estimated scf accuracy    <       3.91042911 Ry

     iteration # 11     ecut=    60.00 Ry     beta= 0.30
     Davidson diagonalization with overlap
     ethr =  7.19E-04,  avg # of iterations =  7.0

     negative rho (up, down):  3.564E-02 0.000E+00

     total cpu time spent up to now is      116.7 secs

     total energy              =   -5283.62086274 Ry
     estimated scf accuracy    <       8.08837825 Ry

     iteration # 12     ecut=    60.00 Ry     beta= 0.30
     Davidson diagonalization with overlap
     ethr =  7.19E-04,  avg # of iterations =  2.0

     negative rho (up, down):  3.489E-02 0.000E+00

     total cpu time spent up to now is      124.1 secs

     total energy              =   -5283.50124544 Ry
     estimated scf accuracy    <       2.89347442 Ry

     iteration # 13     ecut=    60.00 Ry     beta= 0.30
     Davidson diagonalization with overlap
     ethr =  5.32E-04,  avg # of iterations =  3.0

     negative rho (up, down):  3.456E-02 0.000E+00

     total cpu time spent up to now is      131.6 secs

     total energy              =   -5283.47619502 Ry
     estimated scf accuracy    <       5.16242555 Ry

     iteration # 14     ecut=    60.00 Ry     beta= 0.30
     Davidson diagonalization with overlap
     ethr =  5.32E-04,  avg # of iterations =  1.0

     negative rho (up, down):  3.444E-02 0.000E+00

     total cpu time spent up to now is      138.2 secs

     total energy              =   -5283.55596143 Ry
     estimated scf accuracy    <       3.31900833 Ry

     iteration # 15     ecut=    60.00 Ry     beta= 0.30
     Davidson diagonalization with overlap
     ethr =  5.32E-04,  avg # of iterations =  1.0

     negative rho (up, down):  3.441E-02 0.000E+00

     total cpu time spent up to now is      144.8 secs

     total energy              =   -5283.59613014 Ry
     estimated scf accuracy    <       0.71210810 Ry

     iteration # 16     ecut=    60.00 Ry     beta= 0.30
     Davidson diagonalization with overlap
     ethr =  1.31E-04,  avg # of iterations =  2.0

     negative rho (up, down):  3.458E-02 0.000E+00

     total cpu time spent up to now is      151.9 secs

     total energy              =   -5283.59240637 Ry
     estimated scf accuracy    <       1.36655687 Ry

     iteration # 17     ecut=    60.00 Ry     beta= 0.30
     Davidson diagonalization with overlap
     ethr =  1.31E-04,  avg # of iterations =  2.0

     negative rho (up, down):  3.452E-02 0.000E+00

     total cpu time spent up to now is      158.8 secs

     total energy              =   -5283.61194968 Ry
     estimated scf accuracy    <       0.95622314 Ry

     iteration # 18     ecut=    60.00 Ry     beta= 0.30
     Davidson diagonalization with overlap
     ethr =  1.31E-04,  avg # of iterations =  2.0

     negative rho (up, down):  3.452E-02 0.000E+00

     total cpu time spent up to now is      165.8 secs

     total energy              =   -5283.63512174 Ry
     estimated scf accuracy    <       0.29566871 Ry

     iteration # 19     ecut=    60.00 Ry     beta= 0.30
     Davidson diagonalization with overlap
     c_bands:  1 eigenvalues not converged
     ethr =  5.44E-05,  avg # of iterations = 20.0

     negative rho (up, down):  3.456E-02 0.000E+00

     total cpu time spent up to now is      177.1 secs

     total energy              =   -5283.63799956 Ry
     estimated scf accuracy    <       0.17110797 Ry

     iteration # 20     ecut=    60.00 Ry     beta= 0.30
     Davidson diagonalization with overlap
     ethr =  3.15E-05,  avg # of iterations =  7.0

     negative rho (up, down):  3.452E-02 0.000E+00

     total cpu time spent up to now is      185.6 secs

     total energy              =   -5283.63922070 Ry
     estimated scf accuracy    <       0.27138757 Ry

     iteration # 21     ecut=    60.00 Ry     beta= 0.30
     Davidson diagonalization with overlap
     ethr =  3.15E-05,  avg # of iterations =  1.0

     negative rho (up, down):  3.452E-02 0.000E+00

     total cpu time spent up to now is      191.3 secs

     total energy              =   -5283.64410075 Ry
     estimated scf accuracy    <       0.07598391 Ry

     iteration # 22     ecut=    60.00 Ry     beta= 0.30
     Davidson diagonalization with overlap
     ethr =  1.40E-05,  avg # of iterations = 17.0

     negative rho (up, down):  3.447E-02 0.000E+00

     total cpu time spent up to now is      201.8 secs

     total energy              =   -5283.64669220 Ry
     estimated scf accuracy    <       0.06246634 Ry

     iteration # 23     ecut=    60.00 Ry     beta= 0.30
     Davidson diagonalization with overlap
     ethr =  1.15E-05,  avg # of iterations =  1.0

     negative rho (up, down):  3.446E-02 0.000E+00

     total cpu time spent up to now is      207.7 secs

     total energy              =   -5283.64564492 Ry
     estimated scf accuracy    <       0.08372674 Ry

     iteration # 24     ecut=    60.00 Ry     beta= 0.30
     Davidson diagonalization with overlap
     ethr =  1.15E-05,  avg # of iterations =  2.0

     negative rho (up, down):  3.445E-02 0.000E+00

     total cpu time spent up to now is      214.4 secs

     total energy              =   -5283.64151623 Ry
     estimated scf accuracy    <       0.61127870 Ry

     iteration # 25     ecut=    60.00 Ry     beta= 0.30
     Davidson diagonalization with overlap
     ethr =  1.15E-05,  avg # of iterations =  1.0

     negative rho (up, down):  3.444E-02 0.000E+00

     total cpu time spent up to now is      220.6 secs

     total energy              =   -5283.64725731 Ry
     estimated scf accuracy    <       0.06307082 Ry

     iteration # 26     ecut=    60.00 Ry     beta= 0.30
     Davidson diagonalization with overlap
     ethr =  1.15E-05,  avg # of iterations =  1.0

     negative rho (up, down):  3.439E-02 0.000E+00

     total cpu time spent up to now is      226.7 secs

     total energy              =   -5283.64860911 Ry
     estimated scf accuracy    <       0.03445089 Ry

     iteration # 27     ecut=    60.00 Ry     beta= 0.30
     Davidson diagonalization with overlap
     ethr =  6.33E-06,  avg # of iterations =  1.0

     negative rho (up, down):  3.441E-02 0.000E+00

     total cpu time spent up to now is      232.6 secs

     total energy              =   -5283.64866286 Ry
     estimated scf accuracy    <       0.04031708 Ry

     iteration # 28     ecut=    60.00 Ry     beta= 0.30
     Davidson diagonalization with overlap
     ethr =  6.33E-06,  avg # of iterations =  1.0

     negative rho (up, down):  3.436E-02 0.000E+00

     total cpu time spent up to now is      238.6 secs

     total energy              =   -5283.64911881 Ry
     estimated scf accuracy    <       0.03374243 Ry

     iteration # 29     ecut=    60.00 Ry     beta= 0.30
     Davidson diagonalization with overlap
     ethr =  6.20E-06,  avg # of iterations =  1.0

     negative rho (up, down):  3.435E-02 0.000E+00

     total cpu time spent up to now is      245.0 secs

     total energy              =   -5283.64980905 Ry
     estimated scf accuracy    <       0.00614183 Ry

     iteration # 30     ecut=    60.00 Ry     beta= 0.30
     Davidson diagonalization with overlap
     ethr =  1.13E-06,  avg # of iterations =  2.0

     negative rho (up, down):  3.435E-02 0.000E+00

     total cpu time spent up to now is      252.0 secs

     total energy              =   -5283.64974919 Ry
     estimated scf accuracy    <       0.01248549 Ry

     iteration # 31     ecut=    60.00 Ry     beta= 0.30
     Davidson diagonalization with overlap
     ethr =  1.13E-06,  avg # of iterations =  1.0

     negative rho (up, down):  3.434E-02 0.000E+00

     total cpu time spent up to now is      258.1 secs

     total energy              =   -5283.65005705 Ry
     estimated scf accuracy    <       0.00309247 Ry

     iteration # 32     ecut=    60.00 Ry     beta= 0.30
     Davidson diagonalization with overlap
     ethr =  5.68E-07,  avg # of iterations =  2.0

     negative rho (up, down):  3.432E-02 0.000E+00

     total cpu time spent up to now is      264.5 secs

     total energy              =   -5283.65011624 Ry
     estimated scf accuracy    <       0.00395009 Ry

     iteration # 33     ecut=    60.00 Ry     beta= 0.30
     Davidson diagonalization with overlap
     ethr =  5.68E-07,  avg # of iterations =  1.0

     negative rho (up, down):  3.431E-02 0.000E+00

     total cpu time spent up to now is      270.6 secs

     total energy              =   -5283.65020644 Ry
     estimated scf accuracy    <       0.00139687 Ry

     iteration # 34     ecut=    60.00 Ry     beta= 0.30
     Davidson diagonalization with overlap
     ethr =  2.57E-07,  avg # of iterations =  3.0

     negative rho (up, down):  3.431E-02 0.000E+00

     total cpu time spent up to now is      277.4 secs

     total energy              =   -5283.64992009 Ry
     estimated scf accuracy    <       0.02520376 Ry

     iteration # 35     ecut=    60.00 Ry     beta= 0.30
     Davidson diagonalization with overlap
     ethr =  2.57E-07,  avg # of iterations =  2.0

     negative rho (up, down):  3.430E-02 0.000E+00

     total cpu time spent up to now is      283.9 secs

     total energy              =   -5283.65012059 Ry
     estimated scf accuracy    <       0.00444598 Ry

     iteration # 36     ecut=    60.00 Ry     beta= 0.30
     Davidson diagonalization with overlap
     ethr =  2.57E-07,  avg # of iterations =  2.0

     negative rho (up, down):  3.430E-02 0.000E+00

     total cpu time spent up to now is      290.6 secs

     total energy              =   -5283.65020274 Ry
     estimated scf accuracy    <       0.00291676 Ry

     iteration # 37     ecut=    60.00 Ry     beta= 0.30
     Davidson diagonalization with overlap
     ethr =  2.57E-07,  avg # of iterations =  1.0

     negative rho (up, down):  3.428E-02 0.000E+00

     total cpu time spent up to now is      296.5 secs

     total energy              =   -5283.65022593 Ry
     estimated scf accuracy    <       0.00277695 Ry

     iteration # 38     ecut=    60.00 Ry     beta= 0.30
     Davidson diagonalization with overlap
     ethr =  2.57E-07,  avg # of iterations =  2.0

     negative rho (up, down):  3.429E-02 0.000E+00

     total cpu time spent up to now is      303.4 secs

     total energy              =   -5283.65022392 Ry
     estimated scf accuracy    <       0.00267665 Ry

     iteration # 39     ecut=    60.00 Ry     beta= 0.30
     Davidson diagonalization with overlap
     ethr =  2.57E-07,  avg # of iterations =  1.0

     negative rho (up, down):  3.429E-02 0.000E+00

     total cpu time spent up to now is      309.6 secs

     total energy              =   -5283.65028990 Ry
     estimated scf accuracy    <       0.00081155 Ry

     iteration # 40     ecut=    60.00 Ry     beta= 0.30
     Davidson diagonalization with overlap
     ethr =  1.49E-07,  avg # of iterations =  1.0

     negative rho (up, down):  3.428E-02 0.000E+00

     total cpu time spent up to now is      315.7 secs

     total energy              =   -5283.65028874 Ry
     estimated scf accuracy    <       0.00079999 Ry

     iteration # 41     ecut=    60.00 Ry     beta= 0.30
     Davidson diagonalization with overlap
     ethr =  1.47E-07,  avg # of iterations =  1.0

     negative rho (up, down):  3.428E-02 0.000E+00

     total cpu time spent up to now is      322.2 secs

     total energy              =   -5283.65030857 Ry
     estimated scf accuracy    <       0.00040809 Ry

     iteration # 42     ecut=    60.00 Ry     beta= 0.30
     Davidson diagonalization with overlap
     ethr =  7.50E-08,  avg # of iterations =  1.0

     negative rho (up, down):  3.428E-02 0.000E+00

     total cpu time spent up to now is      328.1 secs

     total energy              =   -5283.65031645 Ry
     estimated scf accuracy    <       0.00032231 Ry

     iteration # 43     ecut=    60.00 Ry     beta= 0.30
     Davidson diagonalization with overlap
     ethr =  5.92E-08,  avg # of iterations =  1.0

     negative rho (up, down):  3.427E-02 0.000E+00

     total cpu time spent up to now is      334.2 secs

     total energy              =   -5283.65033021 Ry
     estimated scf accuracy    <       0.00007160 Ry

     iteration # 44     ecut=    60.00 Ry     beta= 0.30
     Davidson diagonalization with overlap
     ethr =  1.32E-08,  avg # of iterations =  2.0

     negative rho (up, down):  3.427E-02 0.000E+00

     total cpu time spent up to now is      340.3 secs

     total energy              =   -5283.65031897 Ry
     estimated scf accuracy    <       0.00084336 Ry

     iteration # 45     ecut=    60.00 Ry     beta= 0.30
     Davidson diagonalization with overlap
     ethr =  1.32E-08,  avg # of iterations =  2.0

     negative rho (up, down):  3.427E-02 0.000E+00

     total cpu time spent up to now is      346.8 secs

     total energy              =   -5283.65032210 Ry
     estimated scf accuracy    <       0.00036117 Ry

     iteration # 46     ecut=    60.00 Ry     beta= 0.30
     Davidson diagonalization with overlap
     ethr =  1.32E-08,  avg # of iterations =  2.0

     negative rho (up, down):  3.427E-02 0.000E+00

     total cpu time spent up to now is      353.3 secs

     total energy              =   -5283.65032604 Ry
     estimated scf accuracy    <       0.00026543 Ry

     iteration # 47     ecut=    60.00 Ry     beta= 0.30
     Davidson diagonalization with overlap
     ethr =  1.32E-08,  avg # of iterations =  1.0

     negative rho (up, down):  3.427E-02 0.000E+00

     total cpu time spent up to now is      359.4 secs

     total energy              =   -5283.65033057 Ry
     estimated scf accuracy    <       0.00017970 Ry

     iteration # 48     ecut=    60.00 Ry     beta= 0.30
     Davidson diagonalization with overlap
     ethr =  1.32E-08,  avg # of iterations =  2.0

     negative rho (up, down):  3.427E-02 0.000E+00

     total cpu time spent up to now is      366.5 secs

     total energy              =   -5283.65032956 Ry
     estimated scf accuracy    <       0.00013937 Ry

     iteration # 49     ecut=    60.00 Ry     beta= 0.30
     Davidson diagonalization with overlap
     ethr =  1.32E-08,  avg # of iterations =  2.0

     negative rho (up, down):  3.426E-02 0.000E+00

     total cpu time spent up to now is      373.3 secs

     total energy              =   -5283.65033114 Ry
     estimated scf accuracy    <       0.00015447 Ry

     iteration # 50     ecut=    60.00 Ry     beta= 0.30
     Davidson diagonalization with overlap
     ethr =  1.32E-08,  avg # of iterations =  1.0

     negative rho (up, down):  3.426E-02 0.000E+00

     total cpu time spent up to now is      379.1 secs

     total energy              =   -5283.65033327 Ry
     estimated scf accuracy    <       0.00007434 Ry

     iteration # 51     ecut=    60.00 Ry     beta= 0.30
     Davidson diagonalization with overlap
     ethr =  1.32E-08,  avg # of iterations =  1.0

     negative rho (up, down):  3.426E-02 0.000E+00

     total cpu time spent up to now is      385.1 secs

     total energy              =   -5283.65033385 Ry
     estimated scf accuracy    <       0.00007055 Ry

     iteration # 52     ecut=    60.00 Ry     beta= 0.30
     Davidson diagonalization with overlap
     ethr =  1.30E-08,  avg # of iterations =  1.0

     negative rho (up, down):  3.426E-02 0.000E+00

     total cpu time spent up to now is      390.9 secs

     total energy              =   -5283.65033479 Ry
     estimated scf accuracy    <       0.00004526 Ry

     iteration # 53     ecut=    60.00 Ry     beta= 0.30
     Davidson diagonalization with overlap
     ethr =  8.32E-09,  avg # of iterations =  1.0

     negative rho (up, down):  3.426E-02 0.000E+00

     total cpu time spent up to now is      396.9 secs

     total energy              =   -5283.65033670 Ry
     estimated scf accuracy    <       0.00001499 Ry

     iteration # 54     ecut=    60.00 Ry     beta= 0.30
     Davidson diagonalization with overlap
     ethr =  2.76E-09,  avg # of iterations =  1.0

     negative rho (up, down):  3.426E-02 0.000E+00

     total cpu time spent up to now is      403.5 secs

     total energy              =   -5283.65033663 Ry
     estimated scf accuracy    <       0.00004149 Ry

     iteration # 55     ecut=    60.00 Ry     beta= 0.30
     Davidson diagonalization with overlap
     ethr =  2.76E-09,  avg # of iterations =  1.0

     negative rho (up, down):  3.426E-02 0.000E+00

     total cpu time spent up to now is      409.6 secs

     total energy              =   -5283.65033669 Ry
     estimated scf accuracy    <       0.00002592 Ry

     iteration # 56     ecut=    60.00 Ry     beta= 0.30
     Davidson diagonalization with overlap
     ethr =  2.76E-09,  avg # of iterations =  1.0

     negative rho (up, down):  3.426E-02 0.000E+00

     total cpu time spent up to now is      415.5 secs

     total energy              =   -5283.65033668 Ry
     estimated scf accuracy    <       0.00002548 Ry

     iteration # 57     ecut=    60.00 Ry     beta= 0.30
     Davidson diagonalization with overlap
     ethr =  2.76E-09,  avg # of iterations =  1.0

     negative rho (up, down):  3.426E-02 0.000E+00

     total cpu time spent up to now is      421.8 secs

     total energy              =   -5283.65033721 Ry
     estimated scf accuracy    <       0.00001480 Ry

     iteration # 58     ecut=    60.00 Ry     beta= 0.30
     Davidson diagonalization with overlap
     ethr =  2.72E-09,  avg # of iterations =  1.0

     negative rho (up, down):  3.426E-02 0.000E+00

     total cpu time spent up to now is      427.6 secs

     total energy              =   -5283.65033744 Ry
     estimated scf accuracy    <       0.00000526 Ry

     iteration # 59     ecut=    60.00 Ry     beta= 0.30
     Davidson diagonalization with overlap
     ethr =  9.66E-10,  avg # of iterations =  2.0

     negative rho (up, down):  3.426E-02 0.000E+00

     total cpu time spent up to now is      434.2 secs

     total energy              =   -5283.65033720 Ry
     estimated scf accuracy    <       0.00001473 Ry

     iteration # 60     ecut=    60.00 Ry     beta= 0.30
     Davidson diagonalization with overlap
     ethr =  9.66E-10,  avg # of iterations =  1.0

     negative rho (up, down):  3.426E-02 0.000E+00

     total cpu time spent up to now is      440.2 secs

     total energy              =   -5283.65033758 Ry
     estimated scf accuracy    <       0.00000574 Ry

     iteration # 61     ecut=    60.00 Ry     beta= 0.30
     Davidson diagonalization with overlap
     ethr =  9.66E-10,  avg # of iterations =  1.0

     negative rho (up, down):  3.426E-02 0.000E+00

     total cpu time spent up to now is      446.4 secs

     total energy              =   -5283.65033757 Ry
     estimated scf accuracy    <       0.00000449 Ry

     iteration # 62     ecut=    60.00 Ry     beta= 0.30
     Davidson diagonalization with overlap
     ethr =  8.25E-10,  avg # of iterations =  1.0

     negative rho (up, down):  3.426E-02 0.000E+00

     total cpu time spent up to now is      452.3 secs

     total energy              =   -5283.65033757 Ry
     estimated scf accuracy    <       0.00000417 Ry

     iteration # 63     ecut=    60.00 Ry     beta= 0.30
     Davidson diagonalization with overlap
     ethr =  7.66E-10,  avg # of iterations =  2.0

     negative rho (up, down):  3.426E-02 0.000E+00

     total cpu time spent up to now is      459.0 secs

     total energy              =   -5283.65033763 Ry
     estimated scf accuracy    <       0.00000497 Ry

     iteration # 64     ecut=    60.00 Ry     beta= 0.30
     Davidson diagonalization with overlap
     ethr =  7.66E-10,  avg # of iterations =  1.0

     negative rho (up, down):  3.426E-02 0.000E+00

     total cpu time spent up to now is      465.3 secs

     total energy              =   -5283.65033773 Ry
     estimated scf accuracy    <       0.00000596 Ry

     iteration # 65     ecut=    60.00 Ry     beta= 0.30
     Davidson diagonalization with overlap
     ethr =  7.66E-10,  avg # of iterations =  1.0

     negative rho (up, down):  3.426E-02 0.000E+00

     total cpu time spent up to now is      470.9 secs

     total energy              =   -5283.65033778 Ry
     estimated scf accuracy    <       0.00000203 Ry

     iteration # 66     ecut=    60.00 Ry     beta= 0.30
     Davidson diagonalization with overlap
     ethr =  3.72E-10,  avg # of iterations =  1.0

     negative rho (up, down):  3.426E-02 0.000E+00

     total cpu time spent up to now is      477.1 secs

     total energy              =   -5283.65033775 Ry
     estimated scf accuracy    <       0.00000249 Ry

     iteration # 67     ecut=    60.00 Ry     beta= 0.30
     Davidson diagonalization with overlap
     ethr =  3.72E-10,  avg # of iterations =  1.0

     negative rho (up, down):  3.426E-02 0.000E+00

     total cpu time spent up to now is      483.7 secs

     total energy              =   -5283.65033779 Ry
     estimated scf accuracy    <       0.00000220 Ry

     iteration # 68     ecut=    60.00 Ry     beta= 0.30
     Davidson diagonalization with overlap
     ethr =  3.72E-10,  avg # of iterations =  1.0

     negative rho (up, down):  3.426E-02 0.000E+00

     total cpu time spent up to now is      489.6 secs

     total energy              =   -5283.65033785 Ry
     estimated scf accuracy    <       0.00000050 Ry

     iteration # 69     ecut=    60.00 Ry     beta= 0.30
     Davidson diagonalization with overlap
     ethr =  9.16E-11,  avg # of iterations =  1.0

     negative rho (up, down):  3.426E-02 0.000E+00

     total cpu time spent up to now is      495.5 secs

     total energy              =   -5283.65033783 Ry
     estimated scf accuracy    <       0.00000053 Ry

     iteration # 70     ecut=    60.00 Ry     beta= 0.30
     Davidson diagonalization with overlap
     ethr =  9.16E-11,  avg # of iterations =  1.0

     negative rho (up, down):  3.426E-02 0.000E+00

     total cpu time spent up to now is      501.5 secs

     total energy              =   -5283.65033785 Ry
     estimated scf accuracy    <       0.00000048 Ry

     iteration # 71     ecut=    60.00 Ry     beta= 0.30
     Davidson diagonalization with overlap
     ethr =  8.85E-11,  avg # of iterations =  1.0

     negative rho (up, down):  3.426E-02 0.000E+00

     total cpu time spent up to now is      507.8 secs

     total energy              =   -5283.65033786 Ry
     estimated scf accuracy    <       0.00000020 Ry

     iteration # 72     ecut=    60.00 Ry     beta= 0.30
     Davidson diagonalization with overlap
     ethr =  3.71E-11,  avg # of iterations =  1.0

     negative rho (up, down):  3.426E-02 0.000E+00

     total cpu time spent up to now is      513.8 secs

     total energy              =   -5283.65033786 Ry
     estimated scf accuracy    <       0.00000029 Ry

     iteration # 73     ecut=    60.00 Ry     beta= 0.30
     Davidson diagonalization with overlap
     ethr =  3.71E-11,  avg # of iterations =  2.0

     negative rho (up, down):  3.426E-02 0.000E+00

     total cpu time spent up to now is      520.3 secs

     total energy              =   -5283.65033785 Ry
     estimated scf accuracy    <       0.00000039 Ry

     iteration # 74     ecut=    60.00 Ry     beta= 0.30
     Davidson diagonalization with overlap
     ethr =  3.71E-11,  avg # of iterations =  1.0

     negative rho (up, down):  3.426E-02 0.000E+00

     total cpu time spent up to now is      526.4 secs

     total energy              =   -5283.65033785 Ry
     estimated scf accuracy    <       0.00000097 Ry

     iteration # 75     ecut=    60.00 Ry     beta= 0.30
     Davidson diagonalization with overlap
     ethr =  3.71E-11,  avg # of iterations =  1.0

     negative rho (up, down):  3.426E-02 0.000E+00

     total cpu time spent up to now is      532.6 secs

     total energy              =   -5283.65033787 Ry
     estimated scf accuracy    <       0.00000023 Ry

     iteration # 76     ecut=    60.00 Ry     beta= 0.30
     Davidson diagonalization with overlap
     ethr =  3.71E-11,  avg # of iterations =  1.0

     negative rho (up, down):  3.426E-02 0.000E+00

     total cpu time spent up to now is      539.0 secs

     total energy              =   -5283.65033786 Ry
     estimated scf accuracy    <       0.00000021 Ry

     iteration # 77     ecut=    60.00 Ry     beta= 0.30
     Davidson diagonalization with overlap
     ethr =  3.71E-11,  avg # of iterations =  1.0

     negative rho (up, down):  3.426E-02 0.000E+00

     total cpu time spent up to now is      545.1 secs

     total energy              =   -5283.65033786 Ry
     estimated scf accuracy    <       0.00000044 Ry

     iteration # 78     ecut=    60.00 Ry     beta= 0.30
     Davidson diagonalization with overlap
     ethr =  3.71E-11,  avg # of iterations =  1.0

     negative rho (up, down):  3.426E-02 0.000E+00

     total cpu time spent up to now is      550.9 secs

     total energy              =   -5283.65033787 Ry
     estimated scf accuracy    <       0.00000013 Ry

     iteration # 79     ecut=    60.00 Ry     beta= 0.30
     Davidson diagonalization with overlap
     ethr =  2.33E-11,  avg # of iterations =  1.0

     negative rho (up, down):  3.426E-02 0.000E+00

     total cpu time spent up to now is      557.2 secs

     End of self-consistent calculation

          k = 0.0000 0.0000 0.0000 ( 46961 PWs)   bands (ev):

   -69.6112 -69.6100 -69.5712 -69.5567 -69.5336 -69.5230 -69.5179 -69.5122
   -69.5011 -69.4679 -69.2833 -62.0862 -62.0827 -62.0714 -62.0492 -62.0382
   -62.0304 -61.9790 -61.9570 -61.9432 -61.8481 -54.3440 -54.3167 -54.2155
   -54.1302 -54.1157 -54.1050 -54.0647 -53.9991 -53.9811 -53.9610 -53.8364
   -41.0455 -41.0371 -41.0236 -41.0090 -40.9973 -40.9836 -40.9812 -40.9784
   -40.9730 -40.9390 -40.9347 -40.9261 -40.9131 -40.9080 -40.8977 -40.8824
   -40.8723 -40.8694 -40.8694 -40.8559 -40.8473 -40.8414 -40.8399 -40.8335
   -40.8225 -40.8113 -40.8027 -40.7909 -40.7788 -40.7608 -40.7291 -40.6354
   -40.5050 -36.0730 -36.0380 -36.0180 -36.0096 -36.0040 -35.9837 -35.9714
   -35.9546 -35.9430 -35.9401 -35.9255 -35.9123 -35.9052 -35.8966 -35.8842
   -35.8799 -35.8743 -35.8723 -35.8508 -35.8457 -35.8402 -35.8352 -35.8171
   -35.8130 -35.8022 -35.7487 -35.7332 -35.7312 -35.6780 -35.6661 -30.7749
   -30.7272 -30.6351 -30.6172 -30.5895 -30.5834 -30.5764 -30.5669 -30.5627
   -30.5343 -30.5224 -30.4863 -30.4797 -30.4716 -30.4553 -30.4421 -30.4279
   -30.4114 -30.4083 -30.4007 -30.3839 -30.3579 -30.3411 -30.3396 -30.2962
   -30.2757 -30.2512 -30.2360 -30.2142 -30.1921 -30.1840 -30.1457 -30.0852
   -10.7913  -9.7472  -9.3154  -9.2491  -9.1248  -9.0130  -8.6532  -8.4500
    -8.4172  -8.3637  -8.3231  -8.2055  -8.1795  -8.0596  -8.0375  -7.8519
    -7.7729  -7.7482  -7.6169  -7.5882  -7.5303  -7.4998  -7.4920  -7.4220
    -7.3818  -7.3590  -7.2106  -7.1770  -6.9322  -6.8925  -6.8309  -6.5105
    -3.9885  -3.9560  -3.9108  -3.7711  -3.0402  -2.8849  -2.8451  -2.8197
    -2.6821  -2.6547  -2.5998  -2.5441  -2.4613  -2.3969  -2.3886  -2.2623
    -2.1277  -2.1110  -2.0444  -1.8858  -1.8619  -1.8338  -1.7920  -1.7328
    -1.6490  -1.5680  -1.5357  -1.4798  -1.4473  -1.4295  -1.4060  -1.3927
    -1.3910  -1.3688  -1.3671  -1.3572  -1.3381  -1.2891  -1.2411  -1.2334
    -1.2022  -1.1478  -1.1038  -1.0764  -1.0724  -1.0163  -0.9267  -0.9160
    -0.8964  -0.8807  -0.8155  -0.8001  -0.7841  -0.7450  -0.7405  -0.7201
    -0.6998  -0.6539  -0.6500  -0.6274  -0.5926  -0.5412  -0.4908  -0.4333
    -0.3871  -0.3161  -0.2946  -0.2383  -0.2132  -0.1645  -0.1508  -0.0559
    -0.0439  -0.0324   0.0890   0.1085   0.1501   0.2340   0.3492   0.3815
     0.4878   0.5818   0.6144   0.6783   0.7155   0.7880   0.8454   0.9864
     1.0082   1.0297   1.1888   1.1984   1.2884   1.3265   1.3871   1.4200
     1.5364   1.6843   1.6999   1.7505   1.8352   1.9537   2.0055   2.1238
     2.5884   2.6264   2.7245   2.7557   2.7937   2.8636   2.9106   2.9342
     2.9586   3.0281   3.0417   3.0744   3.0915   3.1193   3.1886   3.1969
     3.2498   3.2660   3.2810   3.3063   3.3248   3.3563   3.3781   3.4050
     3.4289   3.4576   3.4636   3.5145   3.5361   3.5976   3.6227   3.6332
     3.6535   3.7614   3.7915   3.8003   3.8967   3.9174   3.9497   3.9703
     3.9869   4.0284   4.0625   4.0845   4.1070   4.1344   4.1684   4.2123
     4.2177   4.2760   4.2957   4.3990   4.4094   4.4373   4.4936   4.5276
     4.5544   4.5683   4.5839   4.6357   4.6777   4.7624

     the Fermi energy is     2.9586 ev

!    total energy              =   -5283.65033783 Ry
     estimated scf accuracy    <       0.00000004 Ry
     smearing contrib. (-TS)   =      -0.04501643 Ry
     internal energy E=F+TS    =   -5283.60532141 Ry

     The total energy is F=E-TS. E is the sum of the following terms:
     one-electron contribution =  -56006.50278973 Ry
     hartree contribution      =   28027.46820377 Ry
     xc contribution           =    -787.51419893 Ry
     ewald contribution        =   23680.53976574 Ry
     one-center paw contrib.   =    -197.59630225 Ry

     convergence has been achieved in  79 iterations

     negative rho (up, down):  3.426E-02 0.000E+00

     Forces acting on atoms (cartesian axes, Ry/au):

     atom    1 type  1   force =    -0.00221453   -0.00182096   -0.02446813
     atom    2 type  1   force =    -0.00982115   -0.00706717    0.01043006
     atom    3 type  1   force =    -0.00436544    0.00980667    0.00610146
     atom    4 type  1   force =     0.00024286   -0.01679892    0.03110290
     atom    5 type  1   force =    -0.00400582    0.01174398    0.00314165
     atom    6 type  1   force =     0.00884636   -0.00331663    0.02733731
     atom    7 type  1   force =     0.00004318    0.00421992   -0.01614947
     atom    8 type  1   force =     0.00164899    0.00001633   -0.02447256
     atom    9 type  1   force =    -0.00358571   -0.00467345   -0.01817185
     atom   10 type  1   force =    -0.00210397   -0.00176824   -0.01786326
     atom   11 type  1   force =     0.00491474    0.00061455   -0.01332704
     atom   12 type  2   force =     0.00567811    0.00245638   -0.02660524
     atom   13 type  2   force =    -0.00165211    0.00317840   -0.00937222
     atom   14 type  2   force =     0.02121860   -0.00217022    0.01443924
     atom   15 type  2   force =    -0.01125333    0.00086334    0.11317875
     atom   16 type  2   force =     0.00673562   -0.00071319    0.09451610
     atom   17 type  2   force =    -0.01076440   -0.00245880    0.00392805
     atom   18 type  2   force =     0.00557059    0.01103559    0.02265686
     atom   19 type  2   force =    -0.00783962    0.01063613   -0.02735484
     atom   20 type  2   force =     0.00114445   -0.00816421   -0.00520158
     atom   21 type  2   force =     0.00477600    0.02961033   -0.01082920
     atom   22 type  3   force =    -0.00099763   -0.02259897   -0.02305738
     atom   23 type  3   force =    -0.02566247   -0.00750707    0.01340292
     atom   24 type  3   force =     0.02836937    0.01307939   -0.01623686
     atom   25 type  3   force =     0.01561370   -0.01389611    0.06937041
     atom   26 type  3   force =    -0.00400973    0.01033234    0.12495032
     atom   27 type  3   force =     0.00619928   -0.00615931    0.00109618
     atom   28 type  3   force =    -0.00798420   -0.00010569    0.03775129
     atom   29 type  3   force =    -0.00565325    0.00570305   -0.01773896
     atom   30 type  3   force =     0.00571340    0.00695839   -0.01704084
     atom   31 type  3   force =     0.00627819   -0.00623226   -0.00990873
     atom   32 type  3   force =    -0.00907966   -0.01264298   -0.01046975
     atom   33 type  4   force =     0.00130775   -0.00682539   -0.03469582
     atom   34 type  4   force =     0.00975490    0.01329063   -0.00534385
     atom   35 type  4   force =    -0.00284814   -0.01700601   -0.01988847
     atom   36 type  4   force =     0.00057623    0.01135916   -0.03526767
     atom   37 type  4   force =    -0.00073945    0.00237843    0.02152901
     atom   38 type  4   force =     0.00017407   -0.00663069    0.02111526
     atom   39 type  4   force =     0.00356699    0.00617869    0.01124928
     atom   40 type  4   force =    -0.00023946   -0.00788364    0.00422240
     atom   41 type  4   force =     0.00440868   -0.00109380    0.01725213
     atom   42 type  4   force =    -0.00112064    0.00053993    0.01044286
     atom   43 type  4   force =    -0.00326985   -0.00318165    0.01894260
     atom   44 type  4   force =     0.00024679   -0.00140751    0.00967442
     atom   45 type  4   force =     0.00398441    0.00850417   -0.04387853
     atom   46 type  4   force =     0.00547750    0.00134118   -0.05042207
     atom   47 type  4   force =    -0.01046119    0.00083355   -0.02775242
     atom   48 type  4   force =    -0.01585953   -0.00878481   -0.02882327
     atom   49 type  4   force =    -0.00108058    0.00477433    0.00697219
     atom   50 type  4   force =    -0.00268969    0.00016465   -0.00311833
     atom   51 type  4   force =     0.00348861   -0.00622945    0.00494680
     atom   52 type  4   force =     0.00360033    0.00539281   -0.00209496
     atom   53 type  4   force =    -0.00282252   -0.00518290   -0.03115541
     atom   54 type  4   force =    -0.00569873    0.00761504   -0.02748331
     atom   55 type  4   force =    -0.00014838    0.00526557   -0.03005221
     atom   56 type  4   force =    -0.00086250   -0.00471323   -0.02900120
     atom   57 type  4   force =    -0.01561246    0.00829171   -0.02677833
     atom   58 type  4   force =    -0.00951343   -0.00665069   -0.03269705
     atom   59 type  4   force =     0.01421805    0.01330606   -0.03205013
     atom   60 type  4   force =     0.00219826   -0.01048347   -0.01856488
     atom   61 type  4   force =     0.00784301    0.00101219    0.01639020
     atom   62 type  4   force =     0.00469447   -0.00298632    0.02359184
     atom   63 type  4   force =    -0.00163647    0.00131554    0.00981558
     atom   64 type  4   force =    -0.00293742   -0.00466469    0.01778771

     Total force =     0.103329     Total SCF correction =     0.000347

     BFGS Geometry Optimization
     Energy error            =      0.0E+00 Ry
     Gradient error          =      2.7E-02 Ry/Bohr

     number of scf cycles    =   1
     number of bfgs steps    =   0

     energy             new  =   -5283.6503378324 Ry

     new trust radius        =       0.0323009509 bohr
     new conv_thr            =       0.0000001000 Ry


ATOMIC_POSITIONS (angstrom)
Ti               8.3820119851        0.0366791735       15.7888005859
Ti               0.0291331002        8.3621570543       11.5803477355    0   0   0
Ti               2.0927081581        4.1905439560       13.6702385525
Ti               8.3795041056        2.0957563981        9.4724378689    0   0   0
Ti               8.3750099733        6.2687152092        9.4933225157    0   0   0
Ti               4.2170671874        6.2898439467        9.4911460380    0   0   0
Ti               8.3738780766        2.0850338380       13.6811738958
Ti               8.3832244766        6.2695915554       13.6929583710
Ti               4.2048330812        6.2675238189       13.6838425784
Ti               2.1217874648        6.2622778277       15.7972975921
Ti               6.2747283548        6.2734868140       15.7837277628
V                8.3672942800        4.1190518104       15.6708002322
V                4.2034858647        4.1252781569       15.6518624709
V                4.1453105473        4.2119457891       11.5975026988    0   0   0
V                2.1879867013        0.0520231596        9.5054883674    0   0   0
V                2.1522427348        4.1319303501        9.4904675789    0   0   0
V                2.0943958587        8.3440718500       13.6497112172
V                6.2968366432        4.2080719505       13.6868261586
V                4.1969821790        2.0897914704       13.5992810679
V                2.1048639148        6.2714192178       11.5723879270    0   0   0
V                6.3158808164        6.1438819511       11.5700667150    0   0   0
Cr               4.1976986870        0.0581002971       15.5535052529
Cr               0.1179128009        4.1786640750       11.5195623927    0   0   0
Cr               4.1681598842        8.2577799257       11.6615352591    0   0   0
Cr               6.1999882077        0.1106418811        9.6948923906    0   0   0
Cr               6.2007452456        4.0563627707        9.3394942948    0   0   0
Cr               6.3140946966        8.3038463084       13.5987503656
Cr               4.2149984025        2.0754774019        9.7444374941    0   0   0
Cr               2.1760499343        2.0741582041       15.5738296157
Cr               6.2143298465        2.0672152381       15.5481126264
Cr               2.0054620409        2.1149661174       11.6192682974    0   0   0
Cr               6.3992485267        2.2488278238       11.6549867199    0   0   0
C                8.3671464633        0.0123762133        9.4921945368    0   0   0
C                8.3685510870        4.1683341954        9.4949958325    0   0   0
C                4.2233794382        0.0660683478        9.5137772640    0   0   0
C                4.2071394793        4.1170355077        9.4900603783    0   0   0
C                8.3780878308       -0.0082102330       13.7559603443
C                8.3629719231        4.1705150765       13.7428637204
C                4.2104473245        0.0159824852       13.6994243203
C                4.2160084060        4.1434191140       13.7093864518
C                2.1764955754        0.0585400051       15.8699915570
C                2.1125286875        4.1004810276       15.8859930237
C                6.2183685569        0.0643793754       15.8565033353
C                6.2773954090        4.1067598300       15.8448637507
C                2.1521326937        0.0175132539       11.5903255372    0   0   0
C                2.1078429860        4.1683083653       11.5671868517    0   0   0
C                6.2417937451        0.0188099573       11.6002801854    0   0   0
C                6.3283074126        4.1569384024       11.5682471185    0   0   0
C                8.3756065702        2.1228099276       15.8689920990
C                8.3795982612        6.2294604878       15.9456345668
C                4.2000992949        2.0633253570       15.7859294534
C                4.2029060040        6.2768292235       15.8791715683
C                0.0147673152        2.1438801594       11.5939557114    0   0   0
C                0.0200697416        6.2277703895       11.5821679336    0   0   0
C                4.2182428542        2.0594943016       11.6100232202    0   0   0
C                4.2117703951        6.2583221129       11.5919858628    0   0   0
C                2.1713130363        2.0860319016        9.4919958919    0   0   0
C                2.1164500536        6.2753611976        9.5156635851    0   0   0
C                6.2203151227        2.0809934926        9.4961719556    0   0   0
C                6.2861737462        6.2618311600        9.5257047400    0   0   0
C                2.1323356462        2.0584274476       13.7041029217
C                2.1061225320        6.2919790905       13.7426315436
C                6.2616774304        2.0731963396       13.6841458380
C                6.2978069940        6.2583530053       13.7189789563



     Writing config-only to output data dir ./tmp/hec3_CrTiV_f100_CO_clean.save/ :
     XML data file
     NEW-OLD atomic charge density approx. for the potential

     Check: negative core charge=   -0.000005

     negative rho (up, down):  3.452E-02 0.000E+00

     total cpu time spent up to now is      567.1 secs

     Self-consistent Calculation

     iteration #  1     ecut=    60.00 Ry     beta= 0.30
     Davidson diagonalization with overlap
     c_bands:  1 eigenvalues not converged
     ethr =  1.00E-06,  avg # of iterations = 20.0

     negative rho (up, down):  3.434E-02 0.000E+00

     total cpu time spent up to now is      581.1 secs

     total energy              =   -5283.53961038 Ry
     estimated scf accuracy    <       0.24711705 Ry

     iteration #  2     ecut=    60.00 Ry     beta= 0.30
     Davidson diagonalization with overlap
     ethr =  4.54E-05,  avg # of iterations = 13.0

     negative rho (up, down):  3.440E-02 0.000E+00

     total cpu time spent up to now is      592.8 secs

     total energy              =   -5282.70681040 Ry
     estimated scf accuracy    <      75.67533517 Ry

     iteration #  3     ecut=    60.00 Ry     beta= 0.30
     Davidson diagonalization with overlap
     ethr =  4.54E-05,  avg # of iterations = 16.0

     negative rho (up, down):  3.438E-02 0.000E+00

     total cpu time spent up to now is      605.1 secs

     total energy              =   -5283.63843043 Ry
     estimated scf accuracy    <       0.59988623 Ry

     iteration #  4     ecut=    60.00 Ry     beta= 0.30
     Davidson diagonalization with overlap
     ethr =  4.54E-05,  avg # of iterations =  1.0

     negative rho (up, down):  3.434E-02 0.000E+00

     total cpu time spent up to now is      612.1 secs

     total energy              =   -5283.65251439 Ry
     estimated scf accuracy    <       0.23049792 Ry

     iteration #  5     ecut=    60.00 Ry     beta= 0.30
     Davidson diagonalization with overlap
     ethr =  4.24E-05,  avg # of iterations =  1.0

     negative rho (up, down):  3.438E-02 0.000E+00

     total cpu time spent up to now is      618.7 secs

     total energy              =   -5283.65671090 Ry
     estimated scf accuracy    <       0.03426247 Ry

     iteration #  6     ecut=    60.00 Ry     beta= 0.30
     Davidson diagonalization with overlap
     ethr =  6.30E-06,  avg # of iterations =  5.0

     negative rho (up, down):  3.440E-02 0.000E+00

     total cpu time spent up to now is      626.1 secs

     total energy              =   -5283.65816691 Ry
     estimated scf accuracy    <       0.01514118 Ry

     iteration #  7     ecut=    60.00 Ry     beta= 0.30
     Davidson diagonalization with overlap
     ethr =  2.78E-06,  avg # of iterations = 16.0

     negative rho (up, down):  3.442E-02 0.000E+00

     total cpu time spent up to now is      637.0 secs

     total energy              =   -5283.65876687 Ry
     estimated scf accuracy    <       0.00453071 Ry

     iteration #  8     ecut=    60.00 Ry     beta= 0.30
     Davidson diagonalization with overlap
     ethr =  8.33E-07,  avg # of iterations =  6.0

     negative rho (up, down):  3.444E-02 0.000E+00

     total cpu time spent up to now is      645.2 secs

     total energy              =   -5283.65890479 Ry
     estimated scf accuracy    <       0.00419245 Ry

     iteration #  9     ecut=    60.00 Ry     beta= 0.30
     Davidson diagonalization with overlap
     ethr =  7.71E-07,  avg # of iterations =  2.0

     negative rho (up, down):  3.445E-02 0.000E+00

     total cpu time spent up to now is      651.8 secs

     total energy              =   -5283.65897410 Ry
     estimated scf accuracy    <       0.00179382 Ry

     iteration # 10     ecut=    60.00 Ry     beta= 0.30
     Davidson diagonalization with overlap
     ethr =  3.30E-07,  avg # of iterations =  2.0

     negative rho (up, down):  3.445E-02 0.000E+00

     total cpu time spent up to now is      658.5 secs

     total energy              =   -5283.65899970 Ry
     estimated scf accuracy    <       0.00162796 Ry

     iteration # 11     ecut=    60.00 Ry     beta= 0.30
     Davidson diagonalization with overlap
     ethr =  2.99E-07,  avg # of iterations =  1.0

     negative rho (up, down):  3.446E-02 0.000E+00

     total cpu time spent up to now is      665.0 secs

     total energy              =   -5283.65904310 Ry
     estimated scf accuracy    <       0.00051589 Ry

     iteration # 12     ecut=    60.00 Ry     beta= 0.30
     Davidson diagonalization with overlap
     ethr =  9.48E-08,  avg # of iterations =  5.0

     negative rho (up, down):  3.447E-02 0.000E+00

     total cpu time spent up to now is      672.2 secs

     total energy              =   -5283.65903182 Ry
     estimated scf accuracy    <       0.00060199 Ry

     iteration # 13     ecut=    60.00 Ry     beta= 0.30
     Davidson diagonalization with overlap
     ethr =  9.48E-08,  avg # of iterations =  5.0

     negative rho (up, down):  3.447E-02 0.000E+00

     total cpu time spent up to now is      679.5 secs

     total energy              =   -5283.65898895 Ry
     estimated scf accuracy    <       0.00329024 Ry

     iteration # 14     ecut=    60.00 Ry     beta= 0.30
     Davidson diagonalization with overlap
     ethr =  9.48E-08,  avg # of iterations =  5.0

     negative rho (up, down):  3.448E-02 0.000E+00

     total cpu time spent up to now is      686.9 secs

     total energy              =   -5283.65906333 Ry
     estimated scf accuracy    <       0.00047457 Ry

     iteration # 15     ecut=    60.00 Ry     beta= 0.30
     Davidson diagonalization with overlap
     ethr =  8.72E-08,  avg # of iterations =  1.0

     negative rho (up, down):  3.448E-02 0.000E+00

     total cpu time spent up to now is      693.5 secs

     total energy              =   -5283.65906570 Ry
     estimated scf accuracy    <       0.00025988 Ry

     iteration # 16     ecut=    60.00 Ry     beta= 0.30
     Davidson diagonalization with overlap
     ethr =  4.78E-08,  avg # of iterations =  2.0

     negative rho (up, down):  3.448E-02 0.000E+00

     total cpu time spent up to now is      701.1 secs

     total energy              =   -5283.65905603 Ry
     estimated scf accuracy    <       0.00070930 Ry

     iteration # 17     ecut=    60.00 Ry     beta= 0.30
     Davidson diagonalization with overlap
     ethr =  4.78E-08,  avg # of iterations =  2.0

     negative rho (up, down):  3.448E-02 0.000E+00

     total cpu time spent up to now is      708.2 secs

     total energy              =   -5283.65906443 Ry
     estimated scf accuracy    <       0.00034544 Ry

     iteration # 18     ecut=    60.00 Ry     beta= 0.30
     Davidson diagonalization with overlap
     ethr =  4.78E-08,  avg # of iterations =  1.0

     negative rho (up, down):  3.448E-02 0.000E+00

     total cpu time spent up to now is      714.7 secs

     total energy              =   -5283.65907038 Ry
     estimated scf accuracy    <       0.00016101 Ry

     iteration # 19     ecut=    60.00 Ry     beta= 0.30
     Davidson diagonalization with overlap
     ethr =  2.96E-08,  avg # of iterations =  1.0

     negative rho (up, down):  3.448E-02 0.000E+00

     total cpu time spent up to now is      721.1 secs

     total energy              =   -5283.65907270 Ry
     estimated scf accuracy    <       0.00020335 Ry

     iteration # 20     ecut=    60.00 Ry     beta= 0.30
     Davidson diagonalization with overlap
     ethr =  2.96E-08,  avg # of iterations =  1.0

     negative rho (up, down):  3.448E-02 0.000E+00

     total cpu time spent up to now is      727.6 secs

     total energy              =   -5283.65907600 Ry
     estimated scf accuracy    <       0.00004294 Ry

     iteration # 21     ecut=    60.00 Ry     beta= 0.30
     Davidson diagonalization with overlap
     ethr =  7.89E-09,  avg # of iterations =  2.0

     negative rho (up, down):  3.448E-02 0.000E+00

     total cpu time spent up to now is      734.8 secs

     total energy              =   -5283.65907697 Ry
     estimated scf accuracy    <       0.00003084 Ry

     iteration # 22     ecut=    60.00 Ry     beta= 0.30
     Davidson diagonalization with overlap
     ethr =  5.67E-09,  avg # of iterations =  1.0

     negative rho (up, down):  3.448E-02 0.000E+00

     total cpu time spent up to now is      740.8 secs

     total energy              =   -5283.65907789 Ry
     estimated scf accuracy    <       0.00001356 Ry

     iteration # 23     ecut=    60.00 Ry     beta= 0.30
     Davidson diagonalization with overlap
     ethr =  2.49E-09,  avg # of iterations =  2.0

     negative rho (up, down):  3.448E-02 0.000E+00

     total cpu time spent up to now is      747.8 secs

     total energy              =   -5283.65907792 Ry
     estimated scf accuracy    <       0.00000866 Ry

     iteration # 24     ecut=    60.00 Ry     beta= 0.30
     Davidson diagonalization with overlap
     ethr =  1.59E-09,  avg # of iterations =  2.0

     negative rho (up, down):  3.448E-02 0.000E+00

     total cpu time spent up to now is      754.8 secs

     total energy              =   -5283.65907793 Ry
     estimated scf accuracy    <       0.00002378 Ry

     iteration # 25     ecut=    60.00 Ry     beta= 0.30
     Davidson diagonalization with overlap
     ethr =  1.59E-09,  avg # of iterations =  1.0

     negative rho (up, down):  3.448E-02 0.000E+00

     total cpu time spent up to now is      761.0 secs

     total energy              =   -5283.65907838 Ry
     estimated scf accuracy    <       0.00001668 Ry

     iteration # 26     ecut=    60.00 Ry     beta= 0.30
     Davidson diagonalization with overlap
     ethr =  1.59E-09,  avg # of iterations =  1.0

     negative rho (up, down):  3.448E-02 0.000E+00

     total cpu time spent up to now is      766.9 secs

     total energy              =   -5283.65907827 Ry
     estimated scf accuracy    <       0.00001391 Ry

     iteration # 27     ecut=    60.00 Ry     beta= 0.30
     Davidson diagonalization with overlap
     ethr =  1.59E-09,  avg # of iterations =  1.0

     negative rho (up, down):  3.448E-02 0.000E+00

     total cpu time spent up to now is      773.1 secs

     total energy              =   -5283.65907839 Ry
     estimated scf accuracy    <       0.00000910 Ry

     iteration # 28     ecut=    60.00 Ry     beta= 0.30
     Davidson diagonalization with overlap
     ethr =  1.59E-09,  avg # of iterations =  1.0

     negative rho (up, down):  3.448E-02 0.000E+00

     total cpu time spent up to now is      779.6 secs

     total energy              =   -5283.65907845 Ry
     estimated scf accuracy    <       0.00000679 Ry

     iteration # 29     ecut=    60.00 Ry     beta= 0.30
     Davidson diagonalization with overlap
     ethr =  1.25E-09,  avg # of iterations =  1.0

     negative rho (up, down):  3.448E-02 0.000E+00

     total cpu time spent up to now is      786.0 secs

     total energy              =   -5283.65907848 Ry
     estimated scf accuracy    <       0.00000748 Ry

     iteration # 30     ecut=    60.00 Ry     beta= 0.30
     Davidson diagonalization with overlap
     ethr =  1.25E-09,  avg # of iterations =  1.0

     negative rho (up, down):  3.448E-02 0.000E+00

     total cpu time spent up to now is      792.1 secs

     total energy              =   -5283.65907865 Ry
     estimated scf accuracy    <       0.00000408 Ry

     iteration # 31     ecut=    60.00 Ry     beta= 0.30
     Davidson diagonalization with overlap
     ethr =  7.50E-10,  avg # of iterations =  1.0

     negative rho (up, down):  3.448E-02 0.000E+00

     total cpu time spent up to now is      798.1 secs

     total energy              =   -5283.65907865 Ry
     estimated scf accuracy    <       0.00000327 Ry

     iteration # 32     ecut=    60.00 Ry     beta= 0.30
     Davidson diagonalization with overlap
     ethr =  6.02E-10,  avg # of iterations =  1.0

     negative rho (up, down):  3.448E-02 0.000E+00

     total cpu time spent up to now is      804.4 secs

     total energy              =   -5283.65907874 Ry
     estimated scf accuracy    <       0.00000129 Ry

     iteration # 33     ecut=    60.00 Ry     beta= 0.30
     Davidson diagonalization with overlap
     ethr =  2.37E-10,  avg # of iterations =  1.0

     negative rho (up, down):  3.448E-02 0.000E+00

     total cpu time spent up to now is      810.5 secs

     total energy              =   -5283.65907877 Ry
     estimated scf accuracy    <       0.00000040 Ry

     iteration # 34     ecut=    60.00 Ry     beta= 0.30
     Davidson diagonalization with overlap
     ethr =  7.38E-11,  avg # of iterations =  2.0

     negative rho (up, down):  3.448E-02 0.000E+00

     total cpu time spent up to now is      817.3 secs

     total energy              =   -5283.65907873 Ry
     estimated scf accuracy    <       0.00000195 Ry

     iteration # 35     ecut=    60.00 Ry     beta= 0.30
     Davidson diagonalization with overlap
     ethr =  7.38E-11,  avg # of iterations =  2.0

     negative rho (up, down):  3.448E-02 0.000E+00

     total cpu time spent up to now is      823.9 secs

     total energy              =   -5283.65907875 Ry
     estimated scf accuracy    <       0.00000375 Ry

     iteration # 36     ecut=    60.00 Ry     beta= 0.30
     Davidson diagonalization with overlap
     ethr =  7.38E-11,  avg # of iterations =  1.0

     negative rho (up, down):  3.448E-02 0.000E+00

     total cpu time spent up to now is      829.9 secs

     total energy              =   -5283.65907880 Ry
     estimated scf accuracy    <       0.00000026 Ry

     iteration # 37     ecut=    60.00 Ry     beta= 0.30
     Davidson diagonalization with overlap
     ethr =  4.74E-11,  avg # of iterations =  1.0

     negative rho (up, down):  3.448E-02 0.000E+00

     total cpu time spent up to now is      836.2 secs

     total energy              =   -5283.65907880 Ry
     estimated scf accuracy    <       0.00000039 Ry

     iteration # 38     ecut=    60.00 Ry     beta= 0.30
     Davidson diagonalization with overlap
     ethr =  4.74E-11,  avg # of iterations =  1.0

     negative rho (up, down):  3.448E-02 0.000E+00

     total cpu time spent up to now is      843.9 secs

     total energy              =   -5283.65907880 Ry
     estimated scf accuracy    <       0.00000029 Ry

     iteration # 39     ecut=    60.00 Ry     beta= 0.30
     Davidson diagonalization with overlap
     ethr =  4.74E-11,  avg # of iterations =  1.0

     negative rho (up, down):  3.448E-02 0.000E+00

     total cpu time spent up to now is      850.3 secs

     total energy              =   -5283.65907880 Ry
     estimated scf accuracy    <       0.00000032 Ry

     iteration # 40     ecut=    60.00 Ry     beta= 0.30
     Davidson diagonalization with overlap
     ethr =  4.74E-11,  avg # of iterations =  1.0

     negative rho (up, down):  3.448E-02 0.000E+00

     total cpu time spent up to now is      856.3 secs

     total energy              =   -5283.65907880 Ry
     estimated scf accuracy    <       0.00000093 Ry

     iteration # 41     ecut=    60.00 Ry     beta= 0.30
     Davidson diagonalization with overlap
     ethr =  4.74E-11,  avg # of iterations =  1.0

     negative rho (up, down):  3.448E-02 0.000E+00

     total cpu time spent up to now is      862.2 secs

     total energy              =   -5283.65907881 Ry
     estimated scf accuracy    <       0.00000019 Ry

     iteration # 42     ecut=    60.00 Ry     beta= 0.30
     Davidson diagonalization with overlap
     ethr =  3.44E-11,  avg # of iterations =  1.0

     negative rho (up, down):  3.448E-02 0.000E+00

     total cpu time spent up to now is      868.7 secs

     total energy              =   -5283.65907881 Ry
     estimated scf accuracy    <       0.00000017 Ry

     iteration # 43     ecut=    60.00 Ry     beta= 0.30
     Davidson diagonalization with overlap
     ethr =  3.13E-11,  avg # of iterations =  1.0

     negative rho (up, down):  3.448E-02 0.000E+00

     total cpu time spent up to now is      874.6 secs

     End of self-consistent calculation

          k = 0.0000 0.0000 0.0000 ( 46961 PWs)   bands (ev):

   -69.6271 -69.6161 -69.5863 -69.5656 -69.5439 -69.5331 -69.5303 -69.5229
   -69.5164 -69.4789 -69.2962 -62.1007 -62.0967 -62.0848 -62.0652 -62.0529
   -62.0437 -61.9912 -61.9707 -61.9546 -61.8398 -54.3601 -54.3323 -54.2333
   -54.1218 -54.1072 -54.0961 -54.0803 -54.0193 -54.0052 -53.9826 -53.8610
   -41.0652 -41.0468 -41.0294 -41.0241 -41.0053 -40.9961 -40.9909 -40.9883
   -40.9841 -40.9464 -40.9419 -40.9375 -40.9235 -40.9169 -40.9096 -40.8931
   -40.8913 -40.8844 -40.8800 -40.8705 -40.8568 -40.8523 -40.8508 -40.8471
   -40.8401 -40.8210 -40.8138 -40.8113 -40.7885 -40.7754 -40.7418 -40.6494
   -40.5166 -36.0879 -36.0528 -36.0318 -36.0238 -36.0184 -35.9989 -35.9863
   -35.9711 -35.9604 -35.9539 -35.9407 -35.9262 -35.9199 -35.9112 -35.8983
   -35.8927 -35.8874 -35.8861 -35.8634 -35.8591 -35.8542 -35.8488 -35.8299
   -35.8263 -35.8153 -35.7487 -35.7469 -35.7284 -35.6745 -35.6643 -30.7914
   -30.7432 -30.6535 -30.6331 -30.6051 -30.5929 -30.5913 -30.5821 -30.5653
   -30.5406 -30.5334 -30.4987 -30.4959 -30.4744 -30.4576 -30.4549 -30.4384
   -30.4289 -30.4234 -30.4091 -30.3959 -30.3733 -30.3504 -30.3444 -30.3005
   -30.2895 -30.2605 -30.2498 -30.2359 -30.2069 -30.1995 -30.1657 -30.1095
   -10.8028  -9.7620  -9.3269  -9.2598  -9.1379  -9.0262  -8.6587  -8.4656
    -8.4273  -8.3799  -8.3454  -8.2192  -8.1986  -8.0852  -8.0481  -7.8630
    -7.7878  -7.7647  -7.6320  -7.5937  -7.5471  -7.5141  -7.5070  -7.4359
    -7.3849  -7.3606  -7.2196  -7.1794  -6.9509  -6.9108  -6.8305  -6.5160
    -4.0127  -3.9727  -3.9257  -3.7887  -3.0608  -2.9055  -2.8383  -2.8146
    -2.7000  -2.6649  -2.6211  -2.5574  -2.4806  -2.4172  -2.4090  -2.2832
    -2.1430  -2.1270  -2.0600  -1.9017  -1.8820  -1.8495  -1.8083  -1.7478
    -1.6716  -1.5909  -1.5573  -1.4930  -1.4589  -1.4420  -1.4167  -1.4059
    -1.4052  -1.3832  -1.3817  -1.3702  -1.3501  -1.3031  -1.2501  -1.2409
    -1.2216  -1.1688  -1.1150  -1.0968  -1.0841  -1.0297  -0.9477  -0.9307
    -0.9120  -0.9044  -0.8298  -0.8210  -0.7965  -0.7556  -0.7520  -0.7318
    -0.7094  -0.6712  -0.6534  -0.6414  -0.6086  -0.5307  -0.4813  -0.4308
    -0.3944  -0.3253  -0.3128  -0.2524  -0.2121  -0.1788  -0.1644  -0.0628
    -0.0552  -0.0412   0.0633   0.0775   0.1384   0.2025   0.3435   0.3618
     0.4667   0.5662   0.5822   0.6607   0.6966   0.7593   0.8239   0.9638
     0.9841   1.0043   1.1738   1.1842   1.2703   1.2953   1.3571   1.4010
     1.5151   1.6620   1.6728   1.7331   1.8276   1.9165   1.9614   2.1256
     2.5782   2.6124   2.7093   2.7425   2.7803   2.8478   2.8960   2.9192
     2.9444   3.0161   3.0310   3.0655   3.0849   3.1076   3.1749   3.1899
     3.2355   3.2566   3.2753   3.2933   3.3166   3.3492   3.3676   3.3924
     3.4262   3.4496   3.4537   3.5050   3.5234   3.5848   3.6077   3.6216
     3.6430   3.7504   3.7789   3.7932   3.8840   3.9075   3.9362   3.9545
     3.9738   4.0207   4.0482   4.0683   4.0945   4.1161   4.1493   4.2068
     4.2079   4.2634   4.2835   4.3873   4.4008   4.4322   4.4895   4.5207
     4.5486   4.5620   4.5787   4.6265   4.6597   4.7468

     the Fermi energy is     2.9457 ev

!    total energy              =   -5283.65907878 Ry
     estimated scf accuracy    <       0.00000005 Ry
     smearing contrib. (-TS)   =      -0.04401313 Ry
     internal energy E=F+TS    =   -5283.61506565 Ry

     The total energy is F=E-TS. E is the sum of the following terms:
     one-electron contribution =  -56051.14235230 Ry
     hartree contribution      =   28049.54050068 Ry
     xc contribution           =    -787.55735063 Ry
     ewald contribution        =   23703.14153189 Ry
     one-center paw contrib.   =    -197.59739530 Ry

     convergence has been achieved in  43 iterations

     negative rho (up, down):  3.448E-02 0.000E+00

     Forces acting on atoms (cartesian axes, Ry/au):

     atom    1 type  1   force =    -0.00189734   -0.00153835   -0.01342836
     atom    2 type  1   force =    -0.00990637   -0.00683588    0.00976804
     atom    3 type  1   force =    -0.00168179    0.00660626    0.00322632
     atom    4 type  1   force =     0.00012702   -0.01687740    0.03106993
     atom    5 type  1   force =    -0.00411779    0.01191996    0.00296505
     atom    6 type  1   force =     0.00886656   -0.00347108    0.02722698
     atom    7 type  1   force =    -0.00004300    0.00216708   -0.01491673
     atom    8 type  1   force =     0.00041651   -0.00009396   -0.02093552
     atom    9 type  1   force =    -0.00171179   -0.00295806   -0.01513185
     atom   10 type  1   force =    -0.00215173   -0.00098627   -0.00973576
     atom   11 type  1   force =     0.00450516    0.00032447   -0.00728701
     atom   12 type  2   force =     0.00523104    0.00267859   -0.01165783
     atom   13 type  2   force =    -0.00152148    0.00156251   -0.00342551
     atom   14 type  2   force =     0.02152243   -0.00259297    0.01335182
     atom   15 type  2   force =    -0.01125070    0.00087129    0.11352938
     atom   16 type  2   force =     0.00688227   -0.00071670    0.09466652
     atom   17 type  2   force =    -0.00710512   -0.00208516    0.00167773
     atom   18 type  2   force =     0.00258481    0.00827924    0.01615693
     atom   19 type  2   force =    -0.00533246    0.00756334   -0.02181663
     atom   20 type  2   force =     0.00134455   -0.00835871   -0.00613670
     atom   21 type  2   force =     0.00470187    0.02845475   -0.01118036
     atom   22 type  3   force =    -0.00049194   -0.01974007   -0.01070145
     atom   23 type  3   force =    -0.02549413   -0.00790571    0.01188670
     atom   24 type  3   force =     0.02841343    0.01288251   -0.01588994
     atom   25 type  3   force =     0.01565822   -0.01388685    0.07007184
     atom   26 type  3   force =    -0.00392112    0.01036385    0.12495293
     atom   27 type  3   force =     0.00505234   -0.00579378    0.00052424
     atom   28 type  3   force =    -0.00793410   -0.00006357    0.03687747
     atom   29 type  3   force =    -0.00395177    0.00474175   -0.00677851
     atom   30 type  3   force =     0.00364548    0.00582820   -0.00844072
     atom   31 type  3   force =     0.00611328   -0.00545721   -0.01007879
     atom   32 type  3   force =    -0.00917485   -0.01021171   -0.00992283
     atom   33 type  4   force =     0.00142467   -0.00680706   -0.03430741
     atom   34 type  4   force =     0.00984818    0.01319363   -0.00487396
     atom   35 type  4   force =    -0.00294381   -0.01701701   -0.01955318
     atom   36 type  4   force =     0.00042587    0.01141689   -0.03504602
     atom   37 type  4   force =    -0.00084795    0.00134988    0.01064229
     atom   38 type  4   force =    -0.00005033   -0.00307595    0.01001509
     atom   39 type  4   force =     0.00259053    0.00271449    0.00241523
     atom   40 type  4   force =    -0.00019263   -0.00469720    0.00148416
     atom   41 type  4   force =     0.00418948    0.00044734    0.01235012
     atom   42 type  4   force =    -0.00042947    0.00007537    0.00653125
     atom   43 type  4   force =    -0.00373152   -0.00101685    0.01354391
     atom   44 type  4   force =     0.00013142   -0.00164263    0.00577297
     atom   45 type  4   force =     0.00375206    0.00830181   -0.04230139
     atom   46 type  4   force =     0.00510192    0.00136420   -0.04941144
     atom   47 type  4   force =    -0.01044101    0.00037851   -0.02659106
     atom   48 type  4   force =    -0.01563801   -0.00883064   -0.02723523
     atom   49 type  4   force =    -0.00078096    0.00433476    0.00707992
     atom   50 type  4   force =    -0.00152796   -0.00052017   -0.00049882
     atom   51 type  4   force =     0.00261848   -0.00559290    0.00246718
     atom   52 type  4   force =     0.00235754    0.00558282   -0.00165682
     atom   53 type  4   force =    -0.00243210   -0.00503562   -0.03138528
     atom   54 type  4   force =    -0.00567037    0.00781719   -0.02817012
     atom   55 type  4   force =    -0.00011527    0.00555997   -0.03113593
     atom   56 type  4   force =    -0.00102071   -0.00464389   -0.02948682
     atom   57 type  4   force =    -0.01574158    0.00833537   -0.02640736
     atom   58 type  4   force =    -0.00943525   -0.00670604   -0.03220328
     atom   59 type  4   force =     0.01423689    0.01334986   -0.03186314
     atom   60 type  4   force =     0.00215543   -0.01073235   -0.01810483
     atom   61 type  4   force =     0.00490883    0.00120839    0.00871127
     atom   62 type  4   force =     0.00239877   -0.00139569    0.01412820
     atom   63 type  4   force =    -0.00119303    0.00088704    0.00405699
     atom   64 type  4   force =    -0.00132558   -0.00327385    0.01054611

     Total force =     0.067504     Total SCF correction =     0.000472
     Energy error            =      8.7E-03 Ry
     Gradient error          =      2.2E-02 Ry/Bohr

     number of scf cycles    =   2
     number of bfgs steps    =   1

     energy             old  =   -5283.6503378324 Ry
     energy             new  =   -5283.6590787778 Ry

     CASE: energy            _new < energy            _old

     new trust radius        =       0.0355310460 bohr
     new conv_thr            =       0.0000000022 Ry


ATOMIC_POSITIONS (angstrom)
Ti               8.3805188467        0.0354671043       15.7777331971
Ti               0.0291331002        8.3621570543       11.5803477355    0   0   0
Ti               2.0912481371        4.1958619511       13.6729102783
Ti               8.3795041056        2.0957563981        9.4724378689    0   0   0
Ti               8.3750099733        6.2687152092        9.4933225157    0   0   0
Ti               4.2170671874        6.2898439467        9.4911460380    0   0   0
Ti               8.3738495446        2.0868353162       13.6695066061
Ti               8.3836183283        6.2695247695       13.6764807413
Ti               4.2033957441        6.2651265561       13.6719053491
Ti               2.1201172799        6.2614665999       15.7892665550
Ti               6.2782542327        6.2737555630       15.7777191602
V                8.3713866355        4.1211216988       15.6608873294
V                4.2022955416        4.1265847751       15.6488613520
V                4.1453105473        4.2119457891       11.5975026988    0   0   0
V                2.1879867013        0.0520231596        9.5054883674    0   0   0
V                2.1522427348        4.1319303501        9.4904675789    0   0   0
V                2.0886639426        8.3424294790       13.6511434610
V                6.2990159009        4.2146653990       13.6997569538
V                4.1926939113        2.0958463087       13.5820046921
V                2.1048639148        6.2714192178       11.5723879270    0   0   0
V                6.3158808164        6.1438819511       11.5700667150    0   0   0
Cr               4.1972874861        0.0425906242       15.5444831580
Cr               0.1179128009        4.1786640750       11.5195623927    0   0   0
Cr               4.1681598842        8.2577799257       11.6615352591    0   0   0
Cr               6.1999882077        0.1106418811        9.6948923906    0   0   0
Cr               6.2007452456        4.0563627707        9.3394942948    0   0   0
Cr               6.3180878888        8.2993210735       13.5991904428
Cr               4.2149984025        2.0754774019        9.7444374941    0   0   0
Cr               2.1728808860        2.0778993717       15.5679367629
Cr               6.2172815873        2.0718106807       15.5410615847
Cr               2.0054620409        2.1149661174       11.6192682974    0   0   0
Cr               6.3992485267        2.2488278238       11.6549867199    0   0   0
C                8.3671464633        0.0123762133        9.4921945368    0   0   0
C                8.3685510870        4.1683341954        9.4949958325    0   0   0
C                4.2233794382        0.0660683478        9.5137772640    0   0   0
C                4.2071394793        4.1170355077        9.4900603783    0   0   0
C                8.3774347468       -0.0071023013       13.7648529606
C                8.3629455424        4.1679216412       13.7512808397
C                4.2125168537        0.0182897490       13.7018040450
C                4.2158559813        4.1395861394       13.7106959278
C                2.1797652069        0.0588002240       15.8798718903
C                2.1121555187        4.1005660201       15.8912931139
C                6.2154936617        0.0634657997       15.8673400215
C                6.2775041376        4.1054960995       15.8495737232
C                2.1521326937        0.0175132539       11.5903255372    0   0   0
C                2.1078429860        4.1683083653       11.5671868517    0   0   0
C                6.2417937451        0.0188099573       11.6002801854    0   0   0
C                6.3283074126        4.1569384024       11.5682471185    0   0   0
C                8.3749823750        2.1262050343       15.8744903726
C                8.3783443113        6.2290949859       15.9450979085
C                4.2021845173        2.0589409004       15.7879885000
C                4.2048095287        6.2811588768       15.8778585547
C                0.0147673152        2.1438801594       11.5939557114    0   0   0
C                0.0200697416        6.2277703895       11.5821679336    0   0   0
C                4.2182428542        2.0594943016       11.6100232202    0   0   0
C                4.2117703951        6.2583221129       11.5919858628    0   0   0
C                2.1713130363        2.0860319016        9.4919958919    0   0   0
C                2.1164500536        6.2753611976        9.5156635851    0   0   0
C                6.2203151227        2.0809934926        9.4961719556    0   0   0
C                6.2861737462        6.2618311600        9.5257047400    0   0   0
C                2.1363188193        2.0593557781       13.7113119685
C                2.1081179408        6.2908036052       13.7541534776
C                6.2607246950        2.0739103297       13.6876272254
C                6.2966848153        6.2557286719       13.7275896742



     Writing config-only to output data dir ./tmp/hec3_CrTiV_f100_CO_clean.save/ :
     XML data file
     NEW-OLD atomic charge density approx. for the potential

     Check: negative core charge=   -0.000005

     negative rho (up, down):  3.492E-02 0.000E+00

     total cpu time spent up to now is      884.4 secs

     Self-consistent Calculation

     iteration #  1     ecut=    60.00 Ry     beta= 0.30
     Davidson diagonalization with overlap
     ethr =  1.00E-06,  avg # of iterations = 10.0

     negative rho (up, down):  3.472E-02 0.000E+00

     total cpu time spent up to now is      896.3 secs

     total energy              =   -5283.51078644 Ry
     estimated scf accuracy    <       0.31599505 Ry

     iteration #  2     ecut=    60.00 Ry     beta= 0.30
     Davidson diagonalization with overlap
     ethr =  5.81E-05,  avg # of iterations = 13.0

     negative rho (up, down):  3.484E-02 0.000E+00

     total cpu time spent up to now is      908.3 secs

     total energy              =   -5282.37097046 Ry
     estimated scf accuracy    <      98.09798472 Ry

     iteration #  3     ecut=    60.00 Ry     beta= 0.30
     Davidson diagonalization with overlap
     ethr =  5.81E-05,  avg # of iterations = 14.0

     negative rho (up, down):  3.480E-02 0.000E+00

     total cpu time spent up to now is      920.5 secs

     total energy              =   -5283.64499042 Ry
     estimated scf accuracy    <       0.51878086 Ry

     iteration #  4     ecut=    60.00 Ry     beta= 0.30
     Davidson diagonalization with overlap
     ethr =  5.81E-05,  avg # of iterations =  1.0

     negative rho (up, down):  3.476E-02 0.000E+00

     total cpu time spent up to now is      926.5 secs

     total energy              =   -5283.65802003 Ry
     estimated scf accuracy    <       0.21882130 Ry

     iteration #  5     ecut=    60.00 Ry     beta= 0.30
     Davidson diagonalization with overlap
     ethr =  4.02E-05,  avg # of iterations =  1.0

     negative rho (up, down):  3.479E-02 0.000E+00

     total cpu time spent up to now is      932.4 secs

     total energy              =   -5283.66170179 Ry
     estimated scf accuracy    <       0.04110101 Ry

     iteration #  6     ecut=    60.00 Ry     beta= 0.30
     Davidson diagonalization with overlap
     ethr =  7.56E-06,  avg # of iterations =  2.0

     negative rho (up, down):  3.481E-02 0.000E+00

     total cpu time spent up to now is      938.9 secs

     total energy              =   -5283.66330608 Ry
     estimated scf accuracy    <       0.01974929 Ry

     iteration #  7     ecut=    60.00 Ry     beta= 0.30
     Davidson diagonalization with overlap
     ethr =  3.63E-06,  avg # of iterations = 11.0

     negative rho (up, down):  3.482E-02 0.000E+00

     total cpu time spent up to now is      948.9 secs

     total energy              =   -5283.66391832 Ry
     estimated scf accuracy    <       0.00581052 Ry

     iteration #  8     ecut=    60.00 Ry     beta= 0.30
     Davidson diagonalization with overlap
     ethr =  1.07E-06,  avg # of iterations = 12.0

     negative rho (up, down):  3.484E-02 0.000E+00

     total cpu time spent up to now is      959.0 secs

     total energy              =   -5283.66416110 Ry
     estimated scf accuracy    <       0.00433023 Ry

     iteration #  9     ecut=    60.00 Ry     beta= 0.30
     Davidson diagonalization with overlap
     ethr =  7.96E-07,  avg # of iterations =  2.0

     negative rho (up, down):  3.485E-02 0.000E+00

     total cpu time spent up to now is      965.6 secs

     total energy              =   -5283.66423279 Ry
     estimated scf accuracy    <       0.00171897 Ry

     iteration # 10     ecut=    60.00 Ry     beta= 0.30
     Davidson diagonalization with overlap
     ethr =  3.16E-07,  avg # of iterations =  2.0

     negative rho (up, down):  3.486E-02 0.000E+00

     total cpu time spent up to now is      972.3 secs

     total energy              =   -5283.66425378 Ry
     estimated scf accuracy    <       0.00171998 Ry

     iteration # 11     ecut=    60.00 Ry     beta= 0.30
     Davidson diagonalization with overlap
     ethr =  3.16E-07,  avg # of iterations =  1.0

     negative rho (up, down):  3.487E-02 0.000E+00

     total cpu time spent up to now is      978.7 secs

     total energy              =   -5283.66429835 Ry
     estimated scf accuracy    <       0.00047809 Ry

     iteration # 12     ecut=    60.00 Ry     beta= 0.30
     Davidson diagonalization with overlap
     ethr =  8.79E-08,  avg # of iterations =  2.0

     negative rho (up, down):  3.487E-02 0.000E+00

     total cpu time spent up to now is      985.4 secs

     total energy              =   -5283.66429609 Ry
     estimated scf accuracy    <       0.00031927 Ry

     iteration # 13     ecut=    60.00 Ry     beta= 0.30
     Davidson diagonalization with overlap
     ethr =  5.87E-08,  avg # of iterations =  5.0

     negative rho (up, down):  3.488E-02 0.000E+00

     total cpu time spent up to now is      993.1 secs

     total energy              =   -5283.66426295 Ry
     estimated scf accuracy    <       0.00166180 Ry

     iteration # 14     ecut=    60.00 Ry     beta= 0.30
     Davidson diagonalization with overlap
     ethr =  5.87E-08,  avg # of iterations =  5.0

     negative rho (up, down):  3.488E-02 0.000E+00

     total cpu time spent up to now is     1001.2 secs

     total energy              =   -5283.66431903 Ry
     estimated scf accuracy    <       0.00044508 Ry

     iteration # 15     ecut=    60.00 Ry     beta= 0.30
     Davidson diagonalization with overlap
     ethr =  5.87E-08,  avg # of iterations =  1.0

     negative rho (up, down):  3.488E-02 0.000E+00

     total cpu time spent up to now is     1007.1 secs

     total energy              =   -5283.66432082 Ry
     estimated scf accuracy    <       0.00018478 Ry

     iteration # 16     ecut=    60.00 Ry     beta= 0.30
     Davidson diagonalization with overlap
     ethr =  3.40E-08,  avg # of iterations =  2.0

     negative rho (up, down):  3.489E-02 0.000E+00

     total cpu time spent up to now is     1013.7 secs

     total energy              =   -5283.66431274 Ry
     estimated scf accuracy    <       0.00060620 Ry

     iteration # 17     ecut=    60.00 Ry     beta= 0.30
     Davidson diagonalization with overlap
     ethr =  3.40E-08,  avg # of iterations =  2.0

     negative rho (up, down):  3.489E-02 0.000E+00

     total cpu time spent up to now is     1020.2 secs

     total energy              =   -5283.66431372 Ry
     estimated scf accuracy    <       0.00063233 Ry

     iteration # 18     ecut=    60.00 Ry     beta= 0.30
     Davidson diagonalization with overlap
     ethr =  3.40E-08,  avg # of iterations =  2.0

     negative rho (up, down):  3.489E-02 0.000E+00

     total cpu time spent up to now is     1027.1 secs

     total energy              =   -5283.66432216 Ry
     estimated scf accuracy    <       0.00031067 Ry

     iteration # 19     ecut=    60.00 Ry     beta= 0.30
     Davidson diagonalization with overlap
     ethr =  3.40E-08,  avg # of iterations =  1.0

     negative rho (up, down):  3.489E-02 0.000E+00

     total cpu time spent up to now is     1033.4 secs

     total energy              =   -5283.66432506 Ry
     estimated scf accuracy    <       0.00028028 Ry

     iteration # 20     ecut=    60.00 Ry     beta= 0.30
     Davidson diagonalization with overlap
     ethr =  3.40E-08,  avg # of iterations =  1.0

     negative rho (up, down):  3.489E-02 0.000E+00

     total cpu time spent up to now is     1039.5 secs

     total energy              =   -5283.66432969 Ry
     estimated scf accuracy    <       0.00006973 Ry

     iteration # 21     ecut=    60.00 Ry     beta= 0.30
     Davidson diagonalization with overlap
     ethr =  1.28E-08,  avg # of iterations =  1.0

     negative rho (up, down):  3.489E-02 0.000E+00

     total cpu time spent up to now is     1045.7 secs

     total energy              =   -5283.66433141 Ry
     estimated scf accuracy    <       0.00002645 Ry

     iteration # 22     ecut=    60.00 Ry     beta= 0.30
     Davidson diagonalization with overlap
     ethr =  4.86E-09,  avg # of iterations =  1.0

     negative rho (up, down):  3.489E-02 0.000E+00

     total cpu time spent up to now is     1051.9 secs

     total energy              =   -5283.66433206 Ry
     estimated scf accuracy    <       0.00001838 Ry

     iteration # 23     ecut=    60.00 Ry     beta= 0.30
     Davidson diagonalization with overlap
     ethr =  3.38E-09,  avg # of iterations =  1.0

     negative rho (up, down):  3.489E-02 0.000E+00

     total cpu time spent up to now is     1058.2 secs

     total energy              =   -5283.66433212 Ry
     estimated scf accuracy    <       0.00001419 Ry

     iteration # 24     ecut=    60.00 Ry     beta= 0.30
     Davidson diagonalization with overlap
     ethr =  2.61E-09,  avg # of iterations =  1.0

     negative rho (up, down):  3.489E-02 0.000E+00

     total cpu time spent up to now is     1070.4 secs

     total energy              =   -5283.66433245 Ry
     estimated scf accuracy    <       0.00001103 Ry

     iteration # 25     ecut=    60.00 Ry     beta= 0.30
     Davidson diagonalization with overlap
     ethr =  2.03E-09,  avg # of iterations =  1.0

     negative rho (up, down):  3.489E-02 0.000E+00

     total cpu time spent up to now is     1077.5 secs

     total energy              =   -5283.66433278 Ry
     estimated scf accuracy    <       0.00000582 Ry

     iteration # 26     ecut=    60.00 Ry     beta= 0.30
     Davidson diagonalization with overlap
     ethr =  1.07E-09,  avg # of iterations =  1.0

     negative rho (up, down):  3.489E-02 0.000E+00

     total cpu time spent up to now is     1084.7 secs

     total energy              =   -5283.66433257 Ry
     estimated scf accuracy    <       0.00001300 Ry

     iteration # 27     ecut=    60.00 Ry     beta= 0.30
     Davidson diagonalization with overlap
     ethr =  1.07E-09,  avg # of iterations =  1.0

     negative rho (up, down):  3.489E-02 0.000E+00

     total cpu time spent up to now is     1091.1 secs

     total energy              =   -5283.66433263 Ry
     estimated scf accuracy    <       0.00000989 Ry

     iteration # 28     ecut=    60.00 Ry     beta= 0.30
     Davidson diagonalization with overlap
     ethr =  1.07E-09,  avg # of iterations =  2.0

     negative rho (up, down):  3.489E-02 0.000E+00

     total cpu time spent up to now is     1097.8 secs

     total energy              =   -5283.66433252 Ry
     estimated scf accuracy    <       0.00002141 Ry

     iteration # 29     ecut=    60.00 Ry     beta= 0.30
     Davidson diagonalization with overlap
     ethr =  1.07E-09,  avg # of iterations =  1.0

     negative rho (up, down):  3.489E-02 0.000E+00

     total cpu time spent up to now is     1104.1 secs

     total energy              =   -5283.66433273 Ry
     estimated scf accuracy    <       0.00000727 Ry

     iteration # 30     ecut=    60.00 Ry     beta= 0.30
     Davidson diagonalization with overlap
     ethr =  1.07E-09,  avg # of iterations =  1.0

     negative rho (up, down):  3.489E-02 0.000E+00

     total cpu time spent up to now is     1110.3 secs

     total energy              =   -5283.66433288 Ry
     estimated scf accuracy    <       0.00000618 Ry

     iteration # 31     ecut=    60.00 Ry     beta= 0.30
     Davidson diagonalization with overlap
     ethr =  1.07E-09,  avg # of iterations =  1.0

     negative rho (up, down):  3.489E-02 0.000E+00

     total cpu time spent up to now is     1116.5 secs

     total energy              =   -5283.66433288 Ry
     estimated scf accuracy    <       0.00000337 Ry

     iteration # 32     ecut=    60.00 Ry     beta= 0.30
     Davidson diagonalization with overlap
     ethr =  6.19E-10,  avg # of iterations =  1.0

     negative rho (up, down):  3.489E-02 0.000E+00

     total cpu time spent up to now is     1123.2 secs

     total energy              =   -5283.66433297 Ry
     estimated scf accuracy    <       0.00000221 Ry

     iteration # 33     ecut=    60.00 Ry     beta= 0.30
     Davidson diagonalization with overlap
     ethr =  4.06E-10,  avg # of iterations =  1.0

     negative rho (up, down):  3.489E-02 0.000E+00

     total cpu time spent up to now is     1129.4 secs

     total energy              =   -5283.66433302 Ry
     estimated scf accuracy    <       0.00000061 Ry

     iteration # 34     ecut=    60.00 Ry     beta= 0.30
     Davidson diagonalization with overlap
     ethr =  1.12E-10,  avg # of iterations =  2.0

     negative rho (up, down):  3.489E-02 0.000E+00

     total cpu time spent up to now is     1136.0 secs

     total energy              =   -5283.66433301 Ry
     estimated scf accuracy    <       0.00000099 Ry

     iteration # 35     ecut=    60.00 Ry     beta= 0.30
     Davidson diagonalization with overlap
     ethr =  1.12E-10,  avg # of iterations =  2.0

     negative rho (up, down):  3.489E-02 0.000E+00

     total cpu time spent up to now is     1143.0 secs

     total energy              =   -5283.66433302 Ry
     estimated scf accuracy    <       0.00000216 Ry

     iteration # 36     ecut=    60.00 Ry     beta= 0.30
     Davidson diagonalization with overlap
     ethr =  1.12E-10,  avg # of iterations =  1.0

     negative rho (up, down):  3.489E-02 0.000E+00

     total cpu time spent up to now is     1148.9 secs

     total energy              =   -5283.66433306 Ry
     estimated scf accuracy    <       0.00000019 Ry

     iteration # 37     ecut=    60.00 Ry     beta= 0.30
     Davidson diagonalization with overlap
     ethr =  3.44E-11,  avg # of iterations =  1.0

     negative rho (up, down):  3.489E-02 0.000E+00

     total cpu time spent up to now is     1155.5 secs

     total energy              =   -5283.66433306 Ry
     estimated scf accuracy    <       0.00000018 Ry

     iteration # 38     ecut=    60.00 Ry     beta= 0.30
     Davidson diagonalization with overlap
     ethr =  3.24E-11,  avg # of iterations =  1.0

     negative rho (up, down):  3.489E-02 0.000E+00

     total cpu time spent up to now is     1161.9 secs

     total energy              =   -5283.66433306 Ry
     estimated scf accuracy    <       0.00000041 Ry

     iteration # 39     ecut=    60.00 Ry     beta= 0.30
     Davidson diagonalization with overlap
     ethr =  3.24E-11,  avg # of iterations =  1.0

     negative rho (up, down):  3.489E-02 0.000E+00

     total cpu time spent up to now is     1168.4 secs

     total energy              =   -5283.66433306 Ry
     estimated scf accuracy    <       0.00000023 Ry

     iteration # 40     ecut=    60.00 Ry     beta= 0.30
     Davidson diagonalization with overlap
     ethr =  3.24E-11,  avg # of iterations =  2.0

     negative rho (up, down):  3.489E-02 0.000E+00

     total cpu time spent up to now is     1175.0 secs

     total energy              =   -5283.66433304 Ry
     estimated scf accuracy    <       0.00000202 Ry

     iteration # 41     ecut=    60.00 Ry     beta= 0.30
     Davidson diagonalization with overlap
     ethr =  3.24E-11,  avg # of iterations =  1.0

     negative rho (up, down):  3.489E-02 0.000E+00

     total cpu time spent up to now is     1182.3 secs

     total energy              =   -5283.66433307 Ry
     estimated scf accuracy    <       0.00000009 Ry

     iteration # 42     ecut=    60.00 Ry     beta= 0.30
     Davidson diagonalization with overlap
     ethr =  1.68E-11,  avg # of iterations =  2.0

     negative rho (up, down):  3.489E-02 0.000E+00

     total cpu time spent up to now is     1189.8 secs

     total energy              =   -5283.66433307 Ry
     estimated scf accuracy    <       0.00000015 Ry

     iteration # 43     ecut=    60.00 Ry     beta= 0.30
     Davidson diagonalization with overlap
     ethr =  1.68E-11,  avg # of iterations =  1.0

     negative rho (up, down):  3.489E-02 0.000E+00

     total cpu time spent up to now is     1196.5 secs

     total energy              =   -5283.66433307 Ry
     estimated scf accuracy    <       0.00000005 Ry

     iteration # 44     ecut=    60.00 Ry     beta= 0.30
     Davidson diagonalization with overlap
     ethr =  9.09E-12,  avg # of iterations =  1.0

     negative rho (up, down):  3.489E-02 0.000E+00

     total cpu time spent up to now is     1204.5 secs

     total energy              =   -5283.66433307 Ry
     estimated scf accuracy    <       0.00000006 Ry

     iteration # 45     ecut=    60.00 Ry     beta= 0.30
     Davidson diagonalization with overlap
     ethr =  9.09E-12,  avg # of iterations =  2.0

     negative rho (up, down):  3.489E-02 0.000E+00

     total cpu time spent up to now is     1211.4 secs

     total energy              =   -5283.66433307 Ry
     estimated scf accuracy    <       0.00000020 Ry

     iteration # 46     ecut=    60.00 Ry     beta= 0.30
     Davidson diagonalization with overlap
     ethr =  9.09E-12,  avg # of iterations =  1.0

     negative rho (up, down):  3.489E-02 0.000E+00

     total cpu time spent up to now is     1218.0 secs

     total energy              =   -5283.66433307 Ry
     estimated scf accuracy    <       0.00000004 Ry

     iteration # 47     ecut=    60.00 Ry     beta= 0.30
     Davidson diagonalization with overlap
     ethr =  7.85E-12,  avg # of iterations =  1.0

     negative rho (up, down):  3.489E-02 0.000E+00

     total cpu time spent up to now is     1224.6 secs

     total energy              =   -5283.66433307 Ry
     estimated scf accuracy    <       0.00000001 Ry

     iteration # 48     ecut=    60.00 Ry     beta= 0.30
     Davidson diagonalization with overlap
     ethr =  2.48E-12,  avg # of iterations =  1.0

     negative rho (up, down):  3.489E-02 0.000E+00

     total cpu time spent up to now is     1231.1 secs

     total energy              =   -5283.66433307 Ry
     estimated scf accuracy    <          8.7E-09 Ry

     iteration # 49     ecut=    60.00 Ry     beta= 0.30
     Davidson diagonalization with overlap
     ethr =  1.60E-12,  avg # of iterations =  1.0

     negative rho (up, down):  3.489E-02 0.000E+00

     total cpu time spent up to now is     1237.3 secs

     total energy              =   -5283.66433307 Ry
     estimated scf accuracy    <       0.00000002 Ry

     iteration # 50     ecut=    60.00 Ry     beta= 0.30
     Davidson diagonalization with overlap
     ethr =  1.60E-12,  avg # of iterations =  1.0

     negative rho (up, down):  3.489E-02 0.000E+00

     total cpu time spent up to now is     1243.8 secs

     total energy              =   -5283.66433307 Ry
     estimated scf accuracy    <       0.00000002 Ry

     iteration # 51     ecut=    60.00 Ry     beta= 0.30
     Davidson diagonalization with overlap
     ethr =  1.60E-12,  avg # of iterations =  2.0

     negative rho (up, down):  3.489E-02 0.000E+00

     total cpu time spent up to now is     1251.7 secs

     total energy              =   -5283.66433308 Ry
     estimated scf accuracy    <          6.6E-09 Ry

     iteration # 52     ecut=    60.00 Ry     beta= 0.30
     Davidson diagonalization with overlap
     ethr =  1.22E-12,  avg # of iterations =  1.0

     negative rho (up, down):  3.489E-02 0.000E+00

     total cpu time spent up to now is     1257.5 secs

     total energy              =   -5283.66433307 Ry
     estimated scf accuracy    <          9.0E-09 Ry

     iteration # 53     ecut=    60.00 Ry     beta= 0.30
     Davidson diagonalization with overlap
     ethr =  1.22E-12,  avg # of iterations =  1.0

     negative rho (up, down):  3.489E-02 0.000E+00

     total cpu time spent up to now is     1264.0 secs

     total energy              =   -5283.66433308 Ry
     estimated scf accuracy    <          1.0E-08 Ry

     iteration # 54     ecut=    60.00 Ry     beta= 0.30
     Davidson diagonalization with overlap
     ethr =  1.22E-12,  avg # of iterations =  1.0

     negative rho (up, down):  3.489E-02 0.000E+00

     total cpu time spent up to now is     1270.1 secs

     total energy              =   -5283.66433308 Ry
     estimated scf accuracy    <       0.00000001 Ry

     iteration # 55     ecut=    60.00 Ry     beta= 0.30
     Davidson diagonalization with overlap
     ethr =  1.22E-12,  avg # of iterations =  1.0

     negative rho (up, down):  3.489E-02 0.000E+00

     total cpu time spent up to now is     1276.3 secs

     total energy              =   -5283.66433308 Ry
     estimated scf accuracy    <          6.0E-09 Ry

     iteration # 56     ecut=    60.00 Ry     beta= 0.30
     Davidson diagonalization with overlap
     ethr =  1.10E-12,  avg # of iterations =  1.0

     negative rho (up, down):  3.489E-02 0.000E+00

     total cpu time spent up to now is     1282.4 secs

     total energy              =   -5283.66433308 Ry
     estimated scf accuracy    <       0.00000001 Ry

     iteration # 57     ecut=    60.00 Ry     beta= 0.30
     Davidson diagonalization with overlap
     ethr =  1.10E-12,  avg # of iterations =  1.0

     negative rho (up, down):  3.489E-02 0.000E+00

     total cpu time spent up to now is     1288.3 secs

     total energy              =   -5283.66433307 Ry
     estimated scf accuracy    <          3.6E-09 Ry

     iteration # 58     ecut=    60.00 Ry     beta= 0.30
     Davidson diagonalization with overlap
     ethr =  6.70E-13,  avg # of iterations =  1.0

     negative rho (up, down):  3.489E-02 0.000E+00

     total cpu time spent up to now is     1294.5 secs

     End of self-consistent calculation

          k = 0.0000 0.0000 0.0000 ( 46961 PWs)   bands (ev):

   -69.6400 -69.6223 -69.5982 -69.5721 -69.5531 -69.5432 -69.5374 -69.5326
   -69.5300 -69.4885 -69.3079 -62.1136 -62.1088 -62.0939 -62.0809 -62.0653
   -62.0559 -62.0016 -61.9827 -61.9638 -61.8328 -54.3747 -54.3465 -54.2496
   -54.1168 -54.1014 -54.0933 -54.0900 -54.0379 -54.0287 -54.0022 -53.8835
   -41.0823 -41.0545 -41.0419 -41.0313 -41.0122 -41.0057 -41.0008 -40.9971
   -40.9912 -40.9545 -40.9479 -40.9460 -40.9319 -40.9233 -40.9202 -40.9113
   -40.9004 -40.8955 -40.8896 -40.8794 -40.8657 -40.8628 -40.8595 -40.8586
   -40.8535 -40.8292 -40.8248 -40.8231 -40.7962 -40.7888 -40.7529 -40.6623
   -40.5272 -36.0992 -36.0659 -36.0443 -36.0350 -36.0300 -36.0133 -35.9998
   -35.9852 -35.9757 -35.9660 -35.9545 -35.9381 -35.9329 -35.9239 -35.9107
   -35.9043 -35.8994 -35.8977 -35.8743 -35.8705 -35.8663 -35.8602 -35.8408
   -35.8379 -35.8267 -35.7592 -35.7480 -35.7247 -35.6700 -35.6634 -30.8065
   -30.7578 -30.6704 -30.6474 -30.6192 -30.6062 -30.6035 -30.5959 -30.5728
   -30.5532 -30.5385 -30.5134 -30.5095 -30.4793 -30.4707 -30.4589 -30.4499
   -30.4479 -30.4352 -30.4160 -30.4065 -30.3857 -30.3591 -30.3500 -30.3050
   -30.3026 -30.2742 -30.2581 -30.2535 -30.2234 -30.2093 -30.1832 -30.1335
   -10.8122  -9.7724  -9.3367  -9.2683  -9.1493  -9.0378  -8.6634  -8.4753
    -8.4341  -8.3912  -8.3622  -8.2326  -8.2149  -8.1084  -8.0574  -7.8737
    -7.8011  -7.7795  -7.6460  -7.5987  -7.5594  -7.5270  -7.5189  -7.4485
    -7.3856  -7.3599  -7.2274  -7.1815  -6.9676  -6.9267  -6.8286  -6.5215
    -4.0334  -3.9878  -3.9395  -3.8014  -3.0762  -2.9227  -2.8286  -2.8079
    -2.7150  -2.6735  -2.6391  -2.5676  -2.4983  -2.4350  -2.4264  -2.3023
    -2.1550  -2.1390  -2.0721  -1.9146  -1.8977  -1.8631  -1.8234  -1.7598
    -1.6910  -1.6100  -1.5761  -1.5055  -1.4667  -1.4539  -1.4266  -1.4198
    -1.4166  -1.3985  -1.3941  -1.3792  -1.3597  -1.3124  -1.2594  -1.2429
    -1.2348  -1.1852  -1.1304  -1.1048  -1.0931  -1.0416  -0.9698  -0.9447
    -0.9280  -0.9208  -0.8447  -0.8392  -0.8091  -0.7677  -0.7568  -0.7419
    -0.7160  -0.6892  -0.6625  -0.6435  -0.6225  -0.5182  -0.4725  -0.4271
    -0.4022  -0.3447  -0.3204  -0.2643  -0.2119  -0.1922  -0.1745  -0.0734
    -0.0661  -0.0444   0.0335   0.0587   0.1258   0.1786   0.3322   0.3516
     0.4487   0.5518   0.5545   0.6479   0.6808   0.7349   0.8087   0.9443
     0.9637   0.9827   1.1591   1.1706   1.2499   1.2691   1.3287   1.3847
     1.4975   1.6426   1.6511   1.7188   1.8215   1.8864   1.9229   2.1273
     2.5669   2.6001   2.6947   2.7311   2.7671   2.8326   2.8832   2.9035
     2.9343   3.0067   3.0228   3.0583   3.0790   3.1003   3.1630   3.1838
     3.2203   3.2486   3.2700   3.2823   3.3085   3.3416   3.3605   3.3800
     3.4226   3.4420   3.4452   3.4963   3.5141   3.5708   3.5931   3.6126
     3.6344   3.7374   3.7651   3.7915   3.8723   3.8982   3.9229   3.9396
     3.9630   4.0151   4.0365   4.0528   4.0832   4.1014   4.1319   4.1954
     4.2023   4.2525   4.2719   4.3751   4.3950   4.4261   4.4860   4.5136
     4.5425   4.5554   4.5729   4.6170   4.6429   4.7411

     the Fermi energy is     2.9343 ev

!    total energy              =   -5283.66433307 Ry
     estimated scf accuracy    <          7.5E-10 Ry
     smearing contrib. (-TS)   =      -0.04279610 Ry
     internal energy E=F+TS    =   -5283.62153697 Ry

     The total energy is F=E-TS. E is the sum of the following terms:
     one-electron contribution =  -56085.82771021 Ry
     hartree contribution      =   28066.67480954 Ry
     xc contribution           =    -787.58954923 Ry
     ewald contribution        =   23720.71937682 Ry
     one-center paw contrib.   =    -197.59846389 Ry

     convergence has been achieved in  58 iterations

     negative rho (up, down):  3.489E-02 0.000E+00

     Forces acting on atoms (cartesian axes, Ry/au):

     atom    1 type  1   force =    -0.00144957   -0.00111796   -0.00305330
     atom    2 type  1   force =    -0.01003405   -0.00651033    0.00827102
     atom    3 type  1   force =     0.00001051    0.00319794    0.00147760
     atom    4 type  1   force =     0.00001574   -0.01694243    0.03101989
     atom    5 type  1   force =    -0.00424291    0.01209203    0.00274855
     atom    6 type  1   force =     0.00886408   -0.00360156    0.02709399
     atom    7 type  1   force =    -0.00008655    0.00128810   -0.01029015
     atom    8 type  1   force =    -0.00035675   -0.00057665   -0.01454808
     atom    9 type  1   force =    -0.00025238   -0.00114443   -0.01015939
     atom   10 type  1   force =    -0.00192947   -0.00032781   -0.00217451
     atom   11 type  1   force =     0.00371192   -0.00024624   -0.00151364
     atom   12 type  2   force =     0.00458275    0.00234388    0.00009598
     atom   13 type  2   force =    -0.00127936    0.00015573    0.00073432
     atom   14 type  2   force =     0.02191478   -0.00300890    0.01172282
     atom   15 type  2   force =    -0.01121357    0.00091095    0.11386183
     atom   16 type  2   force =     0.00699318   -0.00074885    0.09477330
     atom   17 type  2   force =    -0.00325851   -0.00112542    0.00024633
     atom   18 type  2   force =     0.00042022    0.00472223    0.00996684
     atom   19 type  2   force =    -0.00293070    0.00386727   -0.01323991
     atom   20 type  2   force =     0.00167186   -0.00861521   -0.00734144
     atom   21 type  2   force =     0.00451288    0.02710961   -0.01197075
     atom   22 type  3   force =    -0.00001346   -0.01732792   -0.00199578
     atom   23 type  3   force =    -0.02521118   -0.00844327    0.01017668
     atom   24 type  3   force =     0.02863218    0.01273330   -0.01571460
     atom   25 type  3   force =     0.01564154   -0.01386807    0.07070006
     atom   26 type  3   force =    -0.00385937    0.01040088    0.12495702
     atom   27 type  3   force =     0.00341443   -0.00498543    0.00000197
     atom   28 type  3   force =    -0.00791234    0.00002071    0.03563650
     atom   29 type  3   force =    -0.00253570    0.00349875    0.00139383
     atom   30 type  3   force =     0.00186869    0.00449468   -0.00166622
     atom   31 type  3   force =     0.00596432   -0.00467733   -0.01100126
     atom   32 type  3   force =    -0.00935517   -0.00769879   -0.00992551
     atom   33 type  4   force =     0.00154345   -0.00679108   -0.03403692
     atom   34 type  4   force =     0.00992106    0.01307624   -0.00460042
     atom   35 type  4   force =    -0.00303597   -0.01698236   -0.01947288
     atom   36 type  4   force =     0.00029532    0.01141725   -0.03482415
     atom   37 type  4   force =    -0.00086377    0.00042828    0.00085124
     atom   38 type  4   force =    -0.00018023   -0.00035401    0.00031852
     atom   39 type  4   force =     0.00162982   -0.00012688   -0.00359657
     atom   40 type  4   force =    -0.00011328   -0.00181672   -0.00026389
     atom   41 type  4   force =     0.00334607    0.00161253    0.00743280
     atom   42 type  4   force =     0.00028183    0.00026416    0.00282412
     atom   43 type  4   force =    -0.00348378    0.00078375    0.00813929
     atom   44 type  4   force =     0.00001110   -0.00112863    0.00218971
     atom   45 type  4   force =     0.00341842    0.00809477   -0.04101664
     atom   46 type  4   force =     0.00475744    0.00148189   -0.04868474
     atom   47 type  4   force =    -0.01032131   -0.00008476   -0.02563565
     atom   48 type  4   force =    -0.01550181   -0.00877666   -0.02596035
     atom   49 type  4   force =    -0.00043765    0.00333763    0.00694285
     atom   50 type  4   force =    -0.00036451   -0.00041752    0.00230469
     atom   51 type  4   force =     0.00166760   -0.00424314    0.00079616
     atom   52 type  4   force =     0.00113707    0.00579261   -0.00052482
     atom   53 type  4   force =    -0.00206428   -0.00503142   -0.03237746
     atom   54 type  4   force =    -0.00563704    0.00809357   -0.02993467
     atom   55 type  4   force =    -0.00009601    0.00595499   -0.03327688
     atom   56 type  4   force =    -0.00116807   -0.00464286   -0.03075669
     atom   57 type  4   force =    -0.01583788    0.00840274   -0.02605438
     atom   58 type  4   force =    -0.00934977   -0.00675939   -0.03178620
     atom   59 type  4   force =     0.01423552    0.01338875   -0.03168644
     atom   60 type  4   force =     0.00212646   -0.01096308   -0.01768395
     atom   61 type  4   force =     0.00223041    0.00117393    0.00249309
     atom   62 type  4   force =     0.00046150    0.00005733    0.00454036
     atom   63 type  4   force =    -0.00089646    0.00055904   -0.00033996
     atom   64 type  4   force =    -0.00000924   -0.00167040    0.00339685

     Total force =     0.039711     Total SCF correction =     0.000081
     Energy error            =      5.3E-03 Ry
     Gradient error          =      1.7E-02 Ry/Bohr

     number of scf cycles    =   3
     number of bfgs steps    =   2

     energy             old  =   -5283.6590787778 Ry
     energy             new  =   -5283.6643330750 Ry

     CASE: energy            _new < energy            _old

     new trust radius        =       0.0518818255 bohr
     new conv_thr            =       0.0000000017 Ry


ATOMIC_POSITIONS (angstrom)
Ti               8.3782172810        0.0336591632       15.7679337131
Ti               0.0291331002        8.3621570543       11.5803477355    0   0   0
Ti               2.0902546753        4.2021866862       13.6760999856
Ti               8.3795041056        2.0957563981        9.4724378689    0   0   0
Ti               8.3750099733        6.2687152092        9.4933225157    0   0   0
Ti               4.2170671874        6.2898439467        9.4911460380    0   0   0
Ti               8.3737530839        2.0893145123       13.6527896946
Ti               8.3835652346        6.2688844956       13.6526404023
Ti               4.2022260186        6.2625634867       13.6549871038
Ti               2.1172585825        6.2606393525       15.7821860062
Ti               6.2839602818        6.2736504829       15.7725487607
V                8.3783021792        4.1245939799       15.6545598090
V                4.2003418146        4.1275581368       15.6475368035
V                4.1453105473        4.2119457891       11.5975026988    0   0   0
V                2.1879867013        0.0520231596        9.5054883674    0   0   0
V                2.1522427348        4.1319303501        9.4904675789    0   0   0
V                2.0820250719        8.3404009776       13.6523492394
V                6.3008472161        4.2231793540       13.7173464145
V                4.1872228662        2.1032232449       13.5589623775
V                2.1048639148        6.2714192178       11.5723879270    0   0   0
V                6.3158808164        6.1438819511       11.5700667150    0   0   0
Cr               4.1970198596        0.0162856701       15.5366258556
Cr               0.1179128009        4.1786640750       11.5195623927    0   0   0
Cr               4.1681598842        8.2577799257       11.6615352591    0   0   0
Cr               6.1999882077        0.1106418811        9.6948923906    0   0   0
Cr               6.2007452456        4.0563627707        9.3394942948    0   0   0
Cr               6.3237800498        8.2917779661       13.5994671244
Cr               4.2149984025        2.0754774019        9.7444374941    0   0   0
Cr               2.1684567465        2.0835422287       15.5653696806
Cr               6.2209280253        2.0789485683       15.5349322091
Cr               2.0054620409        2.1149661174       11.6192682974    0   0   0
Cr               6.3992485267        2.2488278238       11.6549867199    0   0   0
C                8.3671464633        0.0123762133        9.4921945368    0   0   0
C                8.3685510870        4.1683341954        9.4949958325    0   0   0
C                4.2233794382        0.0660683478        9.5137772640    0   0   0
C                4.2071394793        4.1170355077        9.4900603783    0   0   0
C                8.3762097260       -0.0059981478       13.7712391960
C                8.3627655312        4.1658996925       13.7568949921
C                4.2153617586        0.0196479331       13.7000942168
C                4.2156567371        4.1354491863       13.7113519911
C                2.1849337078        0.0604778353       15.8931069502
C                2.1122021410        4.1009463579       15.8972911121
C                6.2104428991        0.0636246646       15.8818448118
C                6.2775808531        4.1037142928       15.8546094913
C                2.1521326937        0.0175132539       11.5903255372    0   0   0
C                2.1078429860        4.1683083653       11.5671868517    0   0   0
C                6.2417937451        0.0188099573       11.6002801854    0   0   0
C                6.3283074126        4.1569384024       11.5682471185    0   0   0
C                8.3741818827        2.1314495567       15.8845448161
C                8.3772246290        6.2285550493       15.9470200391
C                4.2050648271        2.0522322539       15.7901086240
C                4.2070768243        6.2894148486       15.8766246856
C                0.0147673152        2.1438801594       11.5939557114    0   0   0
C                0.0200697416        6.2277703895       11.5821679336    0   0   0
C                4.2182428542        2.0594943016       11.6100232202    0   0   0
C                4.2117703951        6.2583221129       11.5919858628    0   0   0
C                2.1713130363        2.0860319016        9.4919958919    0   0   0
C                2.1164500536        6.2753611976        9.5156635851    0   0   0
C                6.2203151227        2.0809934926        9.4961719556    0   0   0
C                6.2861737462        6.2618311600        9.5257047400    0   0   0
C                2.1409423555        2.0610339326       13.7182974559
C                2.1098252029        6.2901245838       13.7655820802
C                6.2592580455        2.0748992644       13.6895798401
C                6.2959564116        6.2525304915       13.7361548316



     Writing config-only to output data dir ./tmp/hec3_CrTiV_f100_CO_clean.save/ :
     XML data file
     NEW-OLD atomic charge density approx. for the potential

     Check: negative core charge=   -0.000005

     negative rho (up, down):  3.515E-02 0.000E+00

     total cpu time spent up to now is     1304.5 secs

     Self-consistent Calculation

     iteration #  1     ecut=    60.00 Ry     beta= 0.30
     Davidson diagonalization with overlap
     c_bands:  1 eigenvalues not converged
     ethr =  1.00E-06,  avg # of iterations = 20.0

     negative rho (up, down):  3.493E-02 0.000E+00

     total cpu time spent up to now is     1318.6 secs

     total energy              =   -5283.42423714 Ry
     estimated scf accuracy    <       0.49993094 Ry

     iteration #  2     ecut=    60.00 Ry     beta= 0.30
     Davidson diagonalization with overlap
     ethr =  9.19E-05,  avg # of iterations = 16.0

     negative rho (up, down):  3.522E-02 0.000E+00

     total cpu time spent up to now is     1331.4 secs

     total energy              =   -5281.37571216 Ry
     estimated scf accuracy    <     163.74512189 Ry

     iteration #  3     ecut=    60.00 Ry     beta= 0.30
     Davidson diagonalization with overlap
     ethr =  9.19E-05,  avg # of iterations = 20.0

     negative rho (up, down):  3.512E-02 0.000E+00

     total cpu time spent up to now is     1345.2 secs

     total energy              =   -5283.63965994 Ry
     estimated scf accuracy    <       0.72169414 Ry

     iteration #  4     ecut=    60.00 Ry     beta= 0.30
     Davidson diagonalization with overlap
     ethr =  9.19E-05,  avg # of iterations =  2.0

     negative rho (up, down):  3.504E-02 0.000E+00

     total cpu time spent up to now is     1351.8 secs

     total energy              =   -5283.65897131 Ry
     estimated scf accuracy    <       0.22126258 Ry

     iteration #  5     ecut=    60.00 Ry     beta= 0.30
     Davidson diagonalization with overlap
     ethr =  4.07E-05,  avg # of iterations =  2.0

     negative rho (up, down):  3.506E-02 0.000E+00

     total cpu time spent up to now is     1357.9 secs

     total energy              =   -5283.66276066 Ry
     estimated scf accuracy    <       0.08399487 Ry

     iteration #  6     ecut=    60.00 Ry     beta= 0.30
     Davidson diagonalization with overlap
     c_bands:  1 eigenvalues not converged
     ethr =  1.54E-05,  avg # of iterations = 20.0

     negative rho (up, down):  3.506E-02 0.000E+00

     total cpu time spent up to now is     1369.1 secs

     total energy              =   -5283.66564387 Ry
     estimated scf accuracy    <       0.03006953 Ry

     iteration #  7     ecut=    60.00 Ry     beta= 0.30
     Davidson diagonalization with overlap
     ethr =  5.53E-06,  avg # of iterations = 19.0

     negative rho (up, down):  3.507E-02 0.000E+00

     total cpu time spent up to now is     1382.1 secs

     total energy              =   -5283.66659189 Ry
     estimated scf accuracy    <       0.01121962 Ry

     iteration #  8     ecut=    60.00 Ry     beta= 0.30
     Davidson diagonalization with overlap
     ethr =  2.06E-06,  avg # of iterations =  2.0

     negative rho (up, down):  3.508E-02 0.000E+00

     total cpu time spent up to now is     1388.8 secs

     total energy              =   -5283.66688235 Ry
     estimated scf accuracy    <       0.00560473 Ry

     iteration #  9     ecut=    60.00 Ry     beta= 0.30
     Davidson diagonalization with overlap
     ethr =  1.03E-06,  avg # of iterations =  5.0

     negative rho (up, down):  3.509E-02 0.000E+00

     total cpu time spent up to now is     1396.5 secs

     total energy              =   -5283.66702561 Ry
     estimated scf accuracy    <       0.00325783 Ry

     iteration # 10     ecut=    60.00 Ry     beta= 0.30
     Davidson diagonalization with overlap
     ethr =  5.99E-07,  avg # of iterations =  2.0

     negative rho (up, down):  3.509E-02 0.000E+00

     total cpu time spent up to now is     1403.1 secs

     total energy              =   -5283.66707846 Ry
     estimated scf accuracy    <       0.00259663 Ry

     iteration # 11     ecut=    60.00 Ry     beta= 0.30
     Davidson diagonalization with overlap
     ethr =  4.77E-07,  avg # of iterations =  2.0

     negative rho (up, down):  3.510E-02 0.000E+00

     total cpu time spent up to now is     1409.8 secs

     total energy              =   -5283.66715559 Ry
     estimated scf accuracy    <       0.00073827 Ry

     iteration # 12     ecut=    60.00 Ry     beta= 0.30
     Davidson diagonalization with overlap
     ethr =  1.36E-07,  avg # of iterations =  5.0

     negative rho (up, down):  3.510E-02 0.000E+00

     total cpu time spent up to now is     1417.2 secs

     total energy              =   -5283.66715050 Ry
     estimated scf accuracy    <       0.00067139 Ry

     iteration # 13     ecut=    60.00 Ry     beta= 0.30
     Davidson diagonalization with overlap
     ethr =  1.23E-07,  avg # of iterations =  5.0

     negative rho (up, down):  3.511E-02 0.000E+00

     total cpu time spent up to now is     1424.9 secs

     total energy              =   -5283.66710410 Ry
     estimated scf accuracy    <       0.00277246 Ry

     iteration # 14     ecut=    60.00 Ry     beta= 0.30
     Davidson diagonalization with overlap
     ethr =  1.23E-07,  avg # of iterations =  5.0

     negative rho (up, down):  3.512E-02 0.000E+00

     total cpu time spent up to now is     1432.3 secs

     total energy              =   -5283.66717608 Ry
     estimated scf accuracy    <       0.00150153 Ry

     iteration # 15     ecut=    60.00 Ry     beta= 0.30
     Davidson diagonalization with overlap
     ethr =  1.23E-07,  avg # of iterations =  1.0

     negative rho (up, down):  3.511E-02 0.000E+00

     total cpu time spent up to now is     1438.3 secs

     total energy              =   -5283.66717891 Ry
     estimated scf accuracy    <       0.00125884 Ry

     iteration # 16     ecut=    60.00 Ry     beta= 0.30
     Davidson diagonalization with overlap
     ethr =  1.23E-07,  avg # of iterations =  1.0

     negative rho (up, down):  3.512E-02 0.000E+00

     total cpu time spent up to now is     1444.5 secs

     total energy              =   -5283.66718325 Ry
     estimated scf accuracy    <       0.00073941 Ry

     iteration # 17     ecut=    60.00 Ry     beta= 0.30
     Davidson diagonalization with overlap
     ethr =  1.23E-07,  avg # of iterations =  1.0

     negative rho (up, down):  3.512E-02 0.000E+00

     total cpu time spent up to now is     1450.7 secs

     total energy              =   -5283.66718178 Ry
     estimated scf accuracy    <       0.00060353 Ry

     iteration # 18     ecut=    60.00 Ry     beta= 0.30
     Davidson diagonalization with overlap
     ethr =  1.11E-07,  avg # of iterations =  1.0

     negative rho (up, down):  3.512E-02 0.000E+00

     total cpu time spent up to now is     1456.9 secs

     total energy              =   -5283.66718717 Ry
     estimated scf accuracy    <       0.00063324 Ry

     iteration # 19     ecut=    60.00 Ry     beta= 0.30
     Davidson diagonalization with overlap
     ethr =  1.11E-07,  avg # of iterations =  1.0

     negative rho (up, down):  3.512E-02 0.000E+00

     total cpu time spent up to now is     1462.8 secs

     total energy              =   -5283.66720319 Ry
     estimated scf accuracy    <       0.00020720 Ry

     iteration # 20     ecut=    60.00 Ry     beta= 0.30
     Davidson diagonalization with overlap
     ethr =  3.81E-08,  avg # of iterations =  1.0

     negative rho (up, down):  3.512E-02 0.000E+00

     total cpu time spent up to now is     1468.9 secs

     total energy              =   -5283.66720662 Ry
     estimated scf accuracy    <       0.00008780 Ry

     iteration # 21     ecut=    60.00 Ry     beta= 0.30
     Davidson diagonalization with overlap
     ethr =  1.61E-08,  avg # of iterations =  1.0

     negative rho (up, down):  3.512E-02 0.000E+00

     total cpu time spent up to now is     1475.2 secs

     total energy              =   -5283.66720854 Ry
     estimated scf accuracy    <       0.00005256 Ry

     iteration # 22     ecut=    60.00 Ry     beta= 0.30
     Davidson diagonalization with overlap
     ethr =  9.66E-09,  avg # of iterations =  1.0

     negative rho (up, down):  3.512E-02 0.000E+00

     total cpu time spent up to now is     1481.2 secs

     total energy              =   -5283.66721026 Ry
     estimated scf accuracy    <       0.00001801 Ry

     iteration # 23     ecut=    60.00 Ry     beta= 0.30
     Davidson diagonalization with overlap
     ethr =  3.31E-09,  avg # of iterations =  2.0

     negative rho (up, down):  3.512E-02 0.000E+00

     total cpu time spent up to now is     1487.6 secs

     total energy              =   -5283.66720995 Ry
     estimated scf accuracy    <       0.00002371 Ry

     iteration # 24     ecut=    60.00 Ry     beta= 0.30
     Davidson diagonalization with overlap
     ethr =  3.31E-09,  avg # of iterations =  2.0

     negative rho (up, down):  3.513E-02 0.000E+00

     total cpu time spent up to now is     1494.1 secs

     total energy              =   -5283.66720964 Ry
     estimated scf accuracy    <       0.00009150 Ry

     iteration # 25     ecut=    60.00 Ry     beta= 0.30
     Davidson diagonalization with overlap
     ethr =  3.31E-09,  avg # of iterations =  1.0

     negative rho (up, down):  3.513E-02 0.000E+00

     total cpu time spent up to now is     1500.6 secs

     total energy              =   -5283.66721094 Ry
     estimated scf accuracy    <       0.00001509 Ry

     iteration # 26     ecut=    60.00 Ry     beta= 0.30
     Davidson diagonalization with overlap
     ethr =  2.77E-09,  avg # of iterations =  1.0

     negative rho (up, down):  3.513E-02 0.000E+00

     total cpu time spent up to now is     1507.0 secs

     total energy              =   -5283.66721097 Ry
     estimated scf accuracy    <       0.00001464 Ry

     iteration # 27     ecut=    60.00 Ry     beta= 0.30
     Davidson diagonalization with overlap
     ethr =  2.69E-09,  avg # of iterations =  1.0

     negative rho (up, down):  3.513E-02 0.000E+00

     total cpu time spent up to now is     1513.2 secs

     total energy              =   -5283.66721066 Ry
     estimated scf accuracy    <       0.00002245 Ry

     iteration # 28     ecut=    60.00 Ry     beta= 0.30
     Davidson diagonalization with overlap
     ethr =  2.69E-09,  avg # of iterations =  1.0

     negative rho (up, down):  3.513E-02 0.000E+00

     total cpu time spent up to now is     1519.3 secs

     total energy              =   -5283.66721101 Ry
     estimated scf accuracy    <       0.00000937 Ry

     iteration # 29     ecut=    60.00 Ry     beta= 0.30
     Davidson diagonalization with overlap
     ethr =  1.72E-09,  avg # of iterations =  2.0

     negative rho (up, down):  3.513E-02 0.000E+00

     total cpu time spent up to now is     1525.8 secs

     total energy              =   -5283.66721111 Ry
     estimated scf accuracy    <       0.00001269 Ry

     iteration # 30     ecut=    60.00 Ry     beta= 0.30
     Davidson diagonalization with overlap
     ethr =  1.72E-09,  avg # of iterations =  1.0

     negative rho (up, down):  3.513E-02 0.000E+00

     total cpu time spent up to now is     1532.1 secs

     total energy              =   -5283.66721137 Ry
     estimated scf accuracy    <       0.00000524 Ry

     iteration # 31     ecut=    60.00 Ry     beta= 0.30
     Davidson diagonalization with overlap
     ethr =  9.64E-10,  avg # of iterations =  1.0

     negative rho (up, down):  3.513E-02 0.000E+00

     total cpu time spent up to now is     1538.1 secs

     total energy              =   -5283.66721135 Ry
     estimated scf accuracy    <       0.00000640 Ry

     iteration # 32     ecut=    60.00 Ry     beta= 0.30
     Davidson diagonalization with overlap
     ethr =  9.64E-10,  avg # of iterations =  1.0

     negative rho (up, down):  3.513E-02 0.000E+00

     total cpu time spent up to now is     1544.2 secs

     total energy              =   -5283.66721152 Ry
     estimated scf accuracy    <       0.00000160 Ry

     iteration # 33     ecut=    60.00 Ry     beta= 0.30
     Davidson diagonalization with overlap
     ethr =  2.94E-10,  avg # of iterations =  1.0

     negative rho (up, down):  3.513E-02 0.000E+00

     total cpu time spent up to now is     1550.1 secs

     total energy              =   -5283.66721155 Ry
     estimated scf accuracy    <       0.00000103 Ry

     iteration # 34     ecut=    60.00 Ry     beta= 0.30
     Davidson diagonalization with overlap
     ethr =  1.90E-10,  avg # of iterations =  2.0

     negative rho (up, down):  3.513E-02 0.000E+00

     total cpu time spent up to now is     1556.6 secs

     total energy              =   -5283.66721150 Ry
     estimated scf accuracy    <       0.00000748 Ry

     iteration # 35     ecut=    60.00 Ry     beta= 0.30
     Davidson diagonalization with overlap
     ethr =  1.90E-10,  avg # of iterations =  1.0

     negative rho (up, down):  3.513E-02 0.000E+00

     total cpu time spent up to now is     1562.9 secs

     total energy              =   -5283.66721159 Ry
     estimated scf accuracy    <       0.00000084 Ry

     iteration # 36     ecut=    60.00 Ry     beta= 0.30
     Davidson diagonalization with overlap
     ethr =  1.54E-10,  avg # of iterations =  1.0

     negative rho (up, down):  3.513E-02 0.000E+00

     total cpu time spent up to now is     1568.6 secs

     total energy              =   -5283.66721161 Ry
     estimated scf accuracy    <       0.00000051 Ry

     iteration # 37     ecut=    60.00 Ry     beta= 0.30
     Davidson diagonalization with overlap
     ethr =  9.31E-11,  avg # of iterations =  1.0

     negative rho (up, down):  3.513E-02 0.000E+00

     total cpu time spent up to now is     1574.9 secs

     total energy              =   -5283.66721161 Ry
     estimated scf accuracy    <       0.00000053 Ry

     iteration # 38     ecut=    60.00 Ry     beta= 0.30
     Davidson diagonalization with overlap
     ethr =  9.31E-11,  avg # of iterations =  1.0

     negative rho (up, down):  3.513E-02 0.000E+00

     total cpu time spent up to now is     1581.1 secs

     total energy              =   -5283.66721161 Ry
     estimated scf accuracy    <       0.00000032 Ry

     iteration # 39     ecut=    60.00 Ry     beta= 0.30
     Davidson diagonalization with overlap
     ethr =  5.81E-11,  avg # of iterations =  2.0

     negative rho (up, down):  3.513E-02 0.000E+00

     total cpu time spent up to now is     1587.7 secs

     total energy              =   -5283.66721160 Ry
     estimated scf accuracy    <       0.00000066 Ry

     iteration # 40     ecut=    60.00 Ry     beta= 0.30
     Davidson diagonalization with overlap
     ethr =  5.81E-11,  avg # of iterations =  2.0

     negative rho (up, down):  3.513E-02 0.000E+00

     total cpu time spent up to now is     1594.5 secs

     total energy              =   -5283.66721161 Ry
     estimated scf accuracy    <       0.00000083 Ry

     iteration # 41     ecut=    60.00 Ry     beta= 0.30
     Davidson diagonalization with overlap
     ethr =  5.81E-11,  avg # of iterations =  1.0

     negative rho (up, down):  3.513E-02 0.000E+00

     total cpu time spent up to now is     1600.9 secs

     total energy              =   -5283.66721162 Ry
     estimated scf accuracy    <       0.00000031 Ry

     iteration # 42     ecut=    60.00 Ry     beta= 0.30
     Davidson diagonalization with overlap
     ethr =  5.69E-11,  avg # of iterations =  1.0

     negative rho (up, down):  3.513E-02 0.000E+00

     total cpu time spent up to now is     1606.9 secs

     total energy              =   -5283.66721163 Ry
     estimated scf accuracy    <       0.00000019 Ry

     iteration # 43     ecut=    60.00 Ry     beta= 0.30
     Davidson diagonalization with overlap
     ethr =  3.47E-11,  avg # of iterations =  1.0

     negative rho (up, down):  3.513E-02 0.000E+00

     total cpu time spent up to now is     1613.4 secs

     total energy              =   -5283.66721163 Ry
     estimated scf accuracy    <       0.00000009 Ry

     iteration # 44     ecut=    60.00 Ry     beta= 0.30
     Davidson diagonalization with overlap
     ethr =  1.64E-11,  avg # of iterations =  2.0

     negative rho (up, down):  3.513E-02 0.000E+00

     total cpu time spent up to now is     1620.1 secs

     total energy              =   -5283.66721162 Ry
     estimated scf accuracy    <       0.00000106 Ry

     iteration # 45     ecut=    60.00 Ry     beta= 0.30
     Davidson diagonalization with overlap
     ethr =  1.64E-11,  avg # of iterations =  2.0

     negative rho (up, down):  3.513E-02 0.000E+00

     total cpu time spent up to now is     1626.6 secs

     total energy              =   -5283.66721163 Ry
     estimated scf accuracy    <       0.00000016 Ry

     iteration # 46     ecut=    60.00 Ry     beta= 0.30
     Davidson diagonalization with overlap
     ethr =  1.64E-11,  avg # of iterations =  1.0

     negative rho (up, down):  3.513E-02 0.000E+00

     total cpu time spent up to now is     1632.5 secs

     total energy              =   -5283.66721164 Ry
     estimated scf accuracy    <       0.00000008 Ry

     iteration # 47     ecut=    60.00 Ry     beta= 0.30
     Davidson diagonalization with overlap
     ethr =  1.51E-11,  avg # of iterations =  1.0

     negative rho (up, down):  3.513E-02 0.000E+00

     total cpu time spent up to now is     1638.5 secs

     total energy              =   -5283.66721164 Ry
     estimated scf accuracy    <       0.00000002 Ry

     iteration # 48     ecut=    60.00 Ry     beta= 0.30
     Davidson diagonalization with overlap
     ethr =  4.24E-12,  avg # of iterations =  1.0

     negative rho (up, down):  3.513E-02 0.000E+00

     total cpu time spent up to now is     1644.6 secs

     total energy              =   -5283.66721164 Ry
     estimated scf accuracy    <       0.00000002 Ry

     iteration # 49     ecut=    60.00 Ry     beta= 0.30
     Davidson diagonalization with overlap
     ethr =  3.73E-12,  avg # of iterations =  1.0

     negative rho (up, down):  3.513E-02 0.000E+00

     total cpu time spent up to now is     1650.5 secs

     total energy              =   -5283.66721164 Ry
     estimated scf accuracy    <       0.00000002 Ry

     iteration # 50     ecut=    60.00 Ry     beta= 0.30
     Davidson diagonalization with overlap
     ethr =  3.22E-12,  avg # of iterations =  2.0

     negative rho (up, down):  3.513E-02 0.000E+00

     total cpu time spent up to now is     1656.9 secs

     total energy              =   -5283.66721164 Ry
     estimated scf accuracy    <       0.00000004 Ry

     iteration # 51     ecut=    60.00 Ry     beta= 0.30
     Davidson diagonalization with overlap
     ethr =  3.22E-12,  avg # of iterations =  1.0

     negative rho (up, down):  3.513E-02 0.000E+00

     total cpu time spent up to now is     1665.1 secs

     total energy              =   -5283.66721164 Ry
     estimated scf accuracy    <       0.00000002 Ry

     iteration # 52     ecut=    60.00 Ry     beta= 0.30
     Davidson diagonalization with overlap
     ethr =  2.96E-12,  avg # of iterations =  1.0

     negative rho (up, down):  3.513E-02 0.000E+00

     total cpu time spent up to now is     1671.4 secs

     total energy              =   -5283.66721164 Ry
     estimated scf accuracy    <          8.7E-09 Ry

     iteration # 53     ecut=    60.00 Ry     beta= 0.30
     Davidson diagonalization with overlap
     ethr =  1.59E-12,  avg # of iterations =  1.0

     negative rho (up, down):  3.513E-02 0.000E+00

     total cpu time spent up to now is     1677.5 secs

     total energy              =   -5283.66721164 Ry
     estimated scf accuracy    <          1.0E-08 Ry

     iteration # 54     ecut=    60.00 Ry     beta= 0.30
     Davidson diagonalization with overlap
     ethr =  1.59E-12,  avg # of iterations =  1.0

     negative rho (up, down):  3.513E-02 0.000E+00

     total cpu time spent up to now is     1683.7 secs

     total energy              =   -5283.66721164 Ry
     estimated scf accuracy    <       0.00000002 Ry

     iteration # 55     ecut=    60.00 Ry     beta= 0.30
     Davidson diagonalization with overlap
     ethr =  1.59E-12,  avg # of iterations =  2.0

     negative rho (up, down):  3.513E-02 0.000E+00

     total cpu time spent up to now is     1690.6 secs

     total energy              =   -5283.66721164 Ry
     estimated scf accuracy    <       0.00000007 Ry

     iteration # 56     ecut=    60.00 Ry     beta= 0.30
     Davidson diagonalization with overlap
     ethr =  1.59E-12,  avg # of iterations =  1.0

     negative rho (up, down):  3.513E-02 0.000E+00

     total cpu time spent up to now is     1696.6 secs

     total energy              =   -5283.66721164 Ry
     estimated scf accuracy    <       0.00000002 Ry

     iteration # 57     ecut=    60.00 Ry     beta= 0.30
     Davidson diagonalization with overlap
     ethr =  1.59E-12,  avg # of iterations =  1.0

     negative rho (up, down):  3.513E-02 0.000E+00

     total cpu time spent up to now is     1702.7 secs

     total energy              =   -5283.66721164 Ry
     estimated scf accuracy    <          5.1E-09 Ry

     iteration # 58     ecut=    60.00 Ry     beta= 0.30
     Davidson diagonalization with overlap
     ethr =  9.30E-13,  avg # of iterations =  1.0

     negative rho (up, down):  3.513E-02 0.000E+00

     total cpu time spent up to now is     1708.9 secs

     total energy              =   -5283.66721164 Ry
     estimated scf accuracy    <          2.0E-09 Ry

     iteration # 59     ecut=    60.00 Ry     beta= 0.30
     Davidson diagonalization with overlap
     ethr =  3.70E-13,  avg # of iterations =  1.0

     negative rho (up, down):  3.513E-02 0.000E+00

     total cpu time spent up to now is     1714.8 secs

     End of self-consistent calculation

          k = 0.0000 0.0000 0.0000 ( 46961 PWs)   bands (ev):

   -69.6503 -69.6307 -69.6064 -69.5776 -69.5631 -69.5557 -69.5454 -69.5427
   -69.5347 -69.4989 -69.3207 -62.1277 -62.1223 -62.1029 -62.0944 -62.0775
   -62.0668 -62.0120 -61.9953 -61.9708 -61.8259 -54.3909 -54.3620 -54.2669
   -54.1161 -54.1060 -54.0990 -54.0876 -54.0580 -54.0533 -54.0222 -53.9066
   -41.0982 -41.0618 -41.0582 -41.0356 -41.0200 -41.0134 -41.0119 -41.0084
   -40.9902 -40.9649 -40.9575 -40.9492 -40.9400 -40.9327 -40.9251 -40.9238
   -40.9103 -40.9069 -40.9002 -40.8787 -40.8764 -40.8735 -40.8709 -40.8685
   -40.8638 -40.8382 -40.8317 -40.8281 -40.8046 -40.8025 -40.7645 -40.6766
   -40.5391 -36.1083 -36.0797 -36.0578 -36.0478 -36.0381 -36.0308 -36.0138
   -35.9967 -35.9895 -35.9792 -35.9695 -35.9500 -35.9455 -35.9366 -35.9230
   -35.9167 -35.9107 -35.9094 -35.8856 -35.8815 -35.8768 -35.8699 -35.8512
   -35.8498 -35.8377 -35.7718 -35.7455 -35.7190 -35.6634 -35.6632 -30.8233
   -30.7740 -30.6883 -30.6630 -30.6346 -30.6213 -30.6186 -30.6109 -30.5860
   -30.5670 -30.5466 -30.5298 -30.5241 -30.4877 -30.4836 -30.4737 -30.4687
   -30.4612 -30.4443 -30.4247 -30.4182 -30.3990 -30.3677 -30.3572 -30.3188
   -30.3118 -30.2921 -30.2765 -30.2593 -30.2385 -30.2205 -30.1998 -30.1611
   -10.8204  -9.7784  -9.3464  -9.2753  -9.1604  -9.0490  -8.6674  -8.4794
    -8.4366  -8.3983  -8.3743  -8.2485  -8.2294  -8.1320  -8.0668  -7.8852
    -7.8150  -7.7940  -7.6604  -7.6083  -7.5666  -7.5401  -7.5248  -7.4621
    -7.3818  -7.3548  -7.2348  -7.1818  -6.9850  -6.9428  -6.8225  -6.5264
    -4.0526  -4.0037  -3.9543  -3.8096  -3.0879  -2.9384  -2.8127  -2.7980
    -2.7292  -2.6846  -2.6536  -2.5760  -2.5162  -2.4524  -2.4425  -2.3208
    -2.1645  -2.1477  -2.0820  -1.9261  -1.9109  -1.8766  -1.8393  -1.7689
    -1.7064  -1.6278  -1.5931  -1.5197  -1.4714  -1.4665  -1.4397  -1.4346
    -1.4275  -1.4158  -1.4066  -1.3841  -1.3678  -1.3170  -1.2687  -1.2465
    -1.2362  -1.1975  -1.1466  -1.1022  -1.1005  -1.0535  -0.9950  -0.9612
    -0.9476  -0.9271  -0.8610  -0.8568  -0.8232  -0.7776  -0.7613  -0.7504
    -0.7203  -0.7091  -0.6734  -0.6423  -0.6319  -0.4985  -0.4630  -0.4224
    -0.4100  -0.3709  -0.3227  -0.2754  -0.2136  -0.2052  -0.1824  -0.0869
    -0.0774  -0.0440   0.0043   0.0416   0.1074   0.1616   0.3176   0.3486
     0.4314   0.5262   0.5391   0.6400   0.6653   0.7124   0.7981   0.9255
     0.9454   0.9623   1.1412   1.1573   1.2246   1.2453   1.3002   1.3673
     1.4806   1.6223   1.6323   1.7051   1.8172   1.8584   1.8867   2.1298
     2.5479   2.5897   2.6778   2.7196   2.7507   2.8138   2.8699   2.8843
     2.9254   2.9988   3.0164   3.0518   3.0717   3.0984   3.1521   3.1773
     3.2022   3.2418   3.2640   3.2718   3.2991   3.3323   3.3544   3.3669
     3.4171   3.4340   3.4390   3.4875   3.5078   3.5519   3.5783   3.6042
     3.6274   3.7183   3.7533   3.7909   3.8590   3.8865   3.9080   3.9244
     3.9538   4.0098   4.0246   4.0365   4.0694   4.0908   4.1151   4.1794
     4.1970   4.2425   4.2592   4.3608   4.3906   4.4190   4.4804   4.5043
     4.5364   4.5486   4.5644   4.6060   4.6251   4.7229

     the Fermi energy is     2.9221 ev

!    total energy              =   -5283.66721164 Ry
     estimated scf accuracy    <          1.6E-09 Ry
     smearing contrib. (-TS)   =      -0.04090496 Ry
     internal energy E=F+TS    =   -5283.62630668 Ry

     The total energy is F=E-TS. E is the sum of the following terms:
     one-electron contribution =  -56112.19646009 Ry
     hartree contribution      =   28079.64752102 Ry
     xc contribution           =    -787.61047066 Ry
     ewald contribution        =   23734.13268208 Ry
     one-center paw contrib.   =    -197.59957903 Ry

     convergence has been achieved in  59 iterations

     negative rho (up, down):  3.513E-02 0.000E+00

     Forces acting on atoms (cartesian axes, Ry/au):

     atom    1 type  1   force =    -0.00070213   -0.00081910    0.00678450
     atom    2 type  1   force =    -0.01017149   -0.00597077    0.00560639
     atom    3 type  1   force =     0.00097249   -0.00066516    0.00015496
     atom    4 type  1   force =    -0.00011283   -0.01698427    0.03099032
     atom    5 type  1   force =    -0.00440809    0.01225116    0.00245147
     atom    6 type  1   force =     0.00882747   -0.00373339    0.02694667
     atom    7 type  1   force =    -0.00017957    0.00103614   -0.00126938
     atom    8 type  1   force =    -0.00069929   -0.00124092   -0.00290738
     atom    9 type  1   force =     0.00089819    0.00088248   -0.00193929
     atom   10 type  1   force =    -0.00144579   -0.00000558    0.00520036
     atom   11 type  1   force =     0.00243829   -0.00151698    0.00448592
     atom   12 type  2   force =     0.00330896    0.00111342    0.00845436
     atom   13 type  2   force =    -0.00083462   -0.00168466    0.00340697
     atom   14 type  2   force =     0.02247845   -0.00343762    0.00917508
     atom   15 type  2   force =    -0.01111311    0.00098530    0.11427311
     atom   16 type  2   force =     0.00706540   -0.00081702    0.09489441
     atom   17 type  2   force =     0.00094344    0.00054191   -0.00068993
     atom   18 type  2   force =    -0.00101916   -0.00006011    0.00240650
     atom   19 type  2   force =    -0.00009015   -0.00069685    0.00053269
     atom   20 type  2   force =     0.00222405   -0.00903701   -0.00901451
     atom   21 type  2   force =     0.00410613    0.02510533   -0.01342822
     atom   22 type  3   force =     0.00069586   -0.01546169    0.00426333
     atom   23 type  3   force =    -0.02470991   -0.00936476    0.00794226
     atom   24 type  3   force =     0.02911956    0.01282077   -0.01560246
     atom   25 type  3   force =     0.01553131   -0.01385533    0.07132569
     atom   26 type  3   force =    -0.00383840    0.01047993    0.12496019
     atom   27 type  3   force =     0.00110020   -0.00337175   -0.00052922
     atom   28 type  3   force =    -0.00793500    0.00017780    0.03387971
     atom   29 type  3   force =    -0.00114195    0.00143565    0.00707577
     atom   30 type  3   force =    -0.00000031    0.00232096    0.00405498
     atom   31 type  3   force =     0.00581789   -0.00369144   -0.01292911
     atom   32 type  3   force =    -0.00975786   -0.00452561   -0.01040345
     atom   33 type  4   force =     0.00167789   -0.00678742   -0.03387461
     atom   34 type  4   force =     0.00998667    0.01292137   -0.00456508
     atom   35 type  4   force =    -0.00314404   -0.01690801   -0.01973045
     atom   36 type  4   force =     0.00015591    0.01135743   -0.03455021
     atom   37 type  4   force =    -0.00066971   -0.00049578   -0.00779843
     atom   38 type  4   force =    -0.00023535    0.00197534   -0.00782877
     atom   39 type  4   force =     0.00044335   -0.00305458   -0.00695969
     atom   40 type  4   force =     0.00003803    0.00106983   -0.00105827
     atom   41 type  4   force =     0.00191384    0.00288674    0.00164142
     atom   42 type  4   force =     0.00111505    0.00149183   -0.00093972
     atom   43 type  4   force =    -0.00257698    0.00276633    0.00172383
     atom   44 type  4   force =    -0.00008328    0.00066445   -0.00129098
     atom   45 type  4   force =     0.00291248    0.00786203   -0.03984903
     atom   46 type  4   force =     0.00437906    0.00172728   -0.04807327
     atom   47 type  4   force =    -0.01004308   -0.00060067   -0.02476238
     atom   48 type  4   force =    -0.01548061   -0.00863003   -0.02487171
     atom   49 type  4   force =     0.00006873    0.00176200    0.00649222
     atom   50 type  4   force =     0.00098056    0.00102391    0.00577496
     atom   51 type  4   force =     0.00040684   -0.00133335   -0.00028104
     atom   52 type  4   force =    -0.00030008    0.00639426    0.00159738
     atom   53 type  4   force =    -0.00165931   -0.00516231   -0.03447722
     atom   54 type  4   force =    -0.00557447    0.00855520   -0.03375337
     atom   55 type  4   force =    -0.00009362    0.00648692   -0.03744989
     atom   56 type  4   force =    -0.00132122   -0.00477695   -0.03334894
     atom   57 type  4   force =    -0.01591091    0.00851164   -0.02566259
     atom   58 type  4   force =    -0.00922885   -0.00681168   -0.03143738
     atom   59 type  4   force =     0.01422486    0.01340014   -0.03148074
     atom   60 type  4   force =     0.00212401   -0.01121444   -0.01725466
     atom   61 type  4   force =    -0.00077184    0.00077592   -0.00250865
     atom   62 type  4   force =    -0.00138348    0.00143492   -0.00608360
     atom   63 type  4   force =    -0.00055801    0.00019751   -0.00345441
     atom   64 type  4   force =     0.00123955    0.00029936   -0.00443738

     Total force =     0.031816     Total SCF correction =     0.000101
     Energy error            =      2.9E-03 Ry
     Gradient error          =      1.5E-02 Ry/Bohr

     number of scf cycles    =   4
     number of bfgs steps    =   3

     energy             old  =   -5283.6643330750 Ry
     energy             new  =   -5283.6672116359 Ry

     CASE: energy            _new < energy            _old

     new trust radius        =       0.0292730143 bohr
     new conv_thr            =       0.0000000015 Ry


ATOMIC_POSITIONS (angstrom)
Ti               8.3772416768        0.0327221737       15.7686038464
Ti               0.0291331002        8.3621570543       11.5803477355    0   0   0
Ti               2.0903568123        4.2035671918       13.6771776937
Ti               8.3795041056        2.0957563981        9.4724378689    0   0   0
Ti               8.3750099733        6.2687152092        9.4933225157    0   0   0
Ti               4.2170671874        6.2898439467        9.4911460380    0   0   0
Ti               8.3736305176        2.0906702592       13.6480274423
Ti               8.3832534847        6.2680248233       13.6450790144
Ti               4.2023107325        6.2623249203       13.6496348888
Ti               2.1157449189        6.2603652306       15.7828392960
Ti               6.2867620144        6.2727539700       15.7734245508
V                8.3818908574        4.1260326205       15.6566655500
V                4.1993852119        4.1269294478       15.6486922990
V                4.1453105473        4.2119457891       11.5975026988    0   0   0
V                2.1879867013        0.0520231596        9.5054883674    0   0   0
V                2.1522427348        4.1319303501        9.4904675789    0   0   0
V                2.0806897459        8.3402092866       13.6524216430
V                6.3009471113        4.2253843311       13.7234266857
V                4.1856732864        2.1048220319       13.5534113006
V                2.1048639148        6.2714192178       11.5723879270    0   0   0
V                6.3158808164        6.1438819511       11.5700667150    0   0   0
Cr               4.1973254125        0.0008040066       15.5361971406
Cr               0.1179128009        4.1786640750       11.5195623927    0   0   0
Cr               4.1681598842        8.2577799257       11.6615352591    0   0   0
Cr               6.1999882077        0.1106418811        9.6948923906    0   0   0
Cr               6.2007452456        4.0563627707        9.3394942948    0   0   0
Cr               6.3258606739        8.2880101348       13.5992727007
Cr               4.2149984025        2.0754774019        9.7444374941    0   0   0
Cr               2.1666036469        2.0857800926       15.5679269609
Cr               6.2219602888        2.0820676638       15.5351108323
Cr               2.0054620409        2.1149661174       11.6192682974    0   0   0
Cr               6.3992485267        2.2488278238       11.6549867199    0   0   0
C                8.3671464633        0.0123762133        9.4921945368    0   0   0
C                8.3685510870        4.1683341954        9.4949958325    0   0   0
C                4.2233794382        0.0660683478        9.5137772640    0   0   0
C                4.2071394793        4.1170355077        9.4900603783    0   0   0
C                8.3755432020       -0.0059388297       13.7691641385
C                8.3626051448        4.1662723152       13.7546421344
C                4.2163709866        0.0184730727       13.6964107750
C                4.2156289479        4.1348237750       13.7111317018
C                2.1872896019        0.0624350137       15.8975960891
C                2.1128053086        4.1019592463       15.8984972302
C                6.2077879349        0.0650998158       15.8867213002
C                6.2775615137        4.1037184397       15.8553842145
C                2.1521326937        0.0175132539       11.5903255372    0   0   0
C                2.1078429860        4.1683083653       11.5671868517    0   0   0
C                6.2417937451        0.0188099573       11.6002801854    0   0   0
C                6.3283074126        4.1569384024       11.5682471185    0   0   0
C                8.3740101106        2.1337527242       15.8906921912
C                8.3774347642        6.2291023896       15.9506242649
C                4.2060519987        2.0498407711       15.7906588077
C                4.2075398237        6.2950866745       15.8772356533
C                0.0147673152        2.1438801594       11.5939557114    0   0   0
C                0.0200697416        6.2277703895       11.5821679336    0   0   0
C                4.2182428542        2.0594943016       11.6100232202    0   0   0
C                4.2117703951        6.2583221129       11.5919858628    0   0   0
C                2.1713130363        2.0860319016        9.4919958919    0   0   0
C                2.1164500536        6.2753611976        9.5156635851    0   0   0
C                6.2203151227        2.0809934926        9.4961719556    0   0   0
C                6.2861737462        6.2618311600        9.5257047400    0   0   0
C                2.1418260735        2.0618610042       13.7191565670
C                2.1096168459        6.2906621292       13.7655417426
C                6.2585527215        2.0752818665       13.6885344712
C                6.2963712869        6.2518319262       13.7362062891



     Writing config-only to output data dir ./tmp/hec3_CrTiV_f100_CO_clean.save/ :
     XML data file
     NEW-OLD atomic charge density approx. for the potential

     Check: negative core charge=   -0.000005

     negative rho (up, down):  3.494E-02 0.000E+00

     total cpu time spent up to now is     1724.5 secs

     Self-consistent Calculation

     iteration #  1     ecut=    60.00 Ry     beta= 0.30
     Davidson diagonalization with overlap
     ethr =  1.00E-06,  avg # of iterations =  7.0

     negative rho (up, down):  3.491E-02 0.000E+00

     total cpu time spent up to now is     1733.8 secs

     total energy              =   -5283.65356243 Ry
     estimated scf accuracy    <       0.03062044 Ry

     iteration #  2     ecut=    60.00 Ry     beta= 0.30
     Davidson diagonalization with overlap
     ethr =  5.63E-06,  avg # of iterations = 18.0

     negative rho (up, down):  3.492E-02 0.000E+00

     total cpu time spent up to now is     1747.9 secs

     total energy              =   -5283.48169332 Ry
     estimated scf accuracy    <      16.18206657 Ry

     iteration #  3     ecut=    60.00 Ry     beta= 0.30
     Davidson diagonalization with overlap
     ethr =  5.63E-06,  avg # of iterations = 19.0

     negative rho (up, down):  3.489E-02 0.000E+00

     total cpu time spent up to now is     1761.4 secs

     total energy              =   -5283.66636789 Ry
     estimated scf accuracy    <       0.04170099 Ry

     iteration #  4     ecut=    60.00 Ry     beta= 0.30
     Davidson diagonalization with overlap
     ethr =  5.63E-06,  avg # of iterations =  1.0

     negative rho (up, down):  3.490E-02 0.000E+00

     total cpu time spent up to now is     1767.2 secs

     total energy              =   -5283.66770167 Ry
     estimated scf accuracy    <       0.00599305 Ry

     iteration #  5     ecut=    60.00 Ry     beta= 0.30
     Davidson diagonalization with overlap
     ethr =  1.10E-06,  avg # of iterations =  4.0

     negative rho (up, down):  3.492E-02 0.000E+00

     total cpu time spent up to now is     1774.2 secs

     total energy              =   -5283.66793166 Ry
     estimated scf accuracy    <       0.00562638 Ry

     iteration #  6     ecut=    60.00 Ry     beta= 0.30
     Davidson diagonalization with overlap
     ethr =  1.03E-06,  avg # of iterations =  2.0

     negative rho (up, down):  3.492E-02 0.000E+00

     total cpu time spent up to now is     1780.7 secs

     total energy              =   -5283.66805585 Ry
     estimated scf accuracy    <       0.00357095 Ry

     iteration #  7     ecut=    60.00 Ry     beta= 0.30
     Davidson diagonalization with overlap
     ethr =  6.56E-07,  avg # of iterations =  2.0

     negative rho (up, down):  3.493E-02 0.000E+00

     total cpu time spent up to now is     1787.2 secs

     total energy              =   -5283.66810029 Ry
     estimated scf accuracy    <       0.00296835 Ry

     iteration #  8     ecut=    60.00 Ry     beta= 0.30
     Davidson diagonalization with overlap
     ethr =  5.46E-07,  avg # of iterations =  1.0

     negative rho (up, down):  3.493E-02 0.000E+00

     total cpu time spent up to now is     1793.6 secs

     total energy              =   -5283.66817879 Ry
     estimated scf accuracy    <       0.00057978 Ry

     iteration #  9     ecut=    60.00 Ry     beta= 0.30
     Davidson diagonalization with overlap
     ethr =  1.07E-07,  avg # of iterations =  5.0

     negative rho (up, down):  3.493E-02 0.000E+00

     total cpu time spent up to now is     1804.4 secs

     total energy              =   -5283.66819221 Ry
     estimated scf accuracy    <       0.00035592 Ry

     iteration # 10     ecut=    60.00 Ry     beta= 0.30
     Davidson diagonalization with overlap
     ethr =  6.54E-08,  avg # of iterations =  2.0

     negative rho (up, down):  3.493E-02 0.000E+00

     total cpu time spent up to now is     1811.5 secs

     total energy              =   -5283.66820230 Ry
     estimated scf accuracy    <       0.00013785 Ry

     iteration # 11     ecut=    60.00 Ry     beta= 0.30
     Davidson diagonalization with overlap
     ethr =  2.53E-08,  avg # of iterations =  6.0

     negative rho (up, down):  3.494E-02 0.000E+00

     total cpu time spent up to now is     1819.3 secs

     total energy              =   -5283.66820387 Ry
     estimated scf accuracy    <       0.00015387 Ry

     iteration # 12     ecut=    60.00 Ry     beta= 0.30
     Davidson diagonalization with overlap
     ethr =  2.53E-08,  avg # of iterations =  2.0

     negative rho (up, down):  3.494E-02 0.000E+00

     total cpu time spent up to now is     1826.3 secs

     total energy              =   -5283.66820480 Ry
     estimated scf accuracy    <       0.00008213 Ry

     iteration # 13     ecut=    60.00 Ry     beta= 0.30
     Davidson diagonalization with overlap
     ethr =  1.51E-08,  avg # of iterations =  5.0

     negative rho (up, down):  3.494E-02 0.000E+00

     total cpu time spent up to now is     1834.8 secs

     total energy              =   -5283.66818925 Ry
     estimated scf accuracy    <       0.00134397 Ry

     iteration # 14     ecut=    60.00 Ry     beta= 0.30
     Davidson diagonalization with overlap
     ethr =  1.51E-08,  avg # of iterations =  5.0

     negative rho (up, down):  3.494E-02 0.000E+00

     total cpu time spent up to now is     1842.8 secs

     total energy              =   -5283.66820526 Ry
     estimated scf accuracy    <       0.00030352 Ry

     iteration # 15     ecut=    60.00 Ry     beta= 0.30
     Davidson diagonalization with overlap
     ethr =  1.51E-08,  avg # of iterations =  2.0

     negative rho (up, down):  3.494E-02 0.000E+00

     total cpu time spent up to now is     1849.4 secs

     total energy              =   -5283.66820935 Ry
     estimated scf accuracy    <       0.00008114 Ry

     iteration # 16     ecut=    60.00 Ry     beta= 0.30
     Davidson diagonalization with overlap
     ethr =  1.49E-08,  avg # of iterations =  1.0

     negative rho (up, down):  3.494E-02 0.000E+00

     total cpu time spent up to now is     1855.3 secs

     total energy              =   -5283.66821035 Ry
     estimated scf accuracy    <       0.00007701 Ry

     iteration # 17     ecut=    60.00 Ry     beta= 0.30
     Davidson diagonalization with overlap
     ethr =  1.42E-08,  avg # of iterations =  1.0

     negative rho (up, down):  3.494E-02 0.000E+00

     total cpu time spent up to now is     1861.5 secs

     total energy              =   -5283.66821179 Ry
     estimated scf accuracy    <       0.00002299 Ry

     iteration # 18     ecut=    60.00 Ry     beta= 0.30
     Davidson diagonalization with overlap
     ethr =  4.23E-09,  avg # of iterations =  2.0

     negative rho (up, down):  3.494E-02 0.000E+00

     total cpu time spent up to now is     1868.4 secs

     total energy              =   -5283.66821231 Ry
     estimated scf accuracy    <       0.00001611 Ry

     iteration # 19     ecut=    60.00 Ry     beta= 0.30
     Davidson diagonalization with overlap
     ethr =  2.96E-09,  avg # of iterations =  1.0

     negative rho (up, down):  3.494E-02 0.000E+00

     total cpu time spent up to now is     1874.1 secs

     total energy              =   -5283.66821249 Ry
     estimated scf accuracy    <       0.00000678 Ry

     iteration # 20     ecut=    60.00 Ry     beta= 0.30
     Davidson diagonalization with overlap
     ethr =  1.25E-09,  avg # of iterations =  2.0

     negative rho (up, down):  3.494E-02 0.000E+00

     total cpu time spent up to now is     1880.7 secs

     total energy              =   -5283.66821262 Ry
     estimated scf accuracy    <       0.00000699 Ry

     iteration # 21     ecut=    60.00 Ry     beta= 0.30
     Davidson diagonalization with overlap
     ethr =  1.25E-09,  avg # of iterations =  1.0

     negative rho (up, down):  3.494E-02 0.000E+00

     total cpu time spent up to now is     1886.9 secs

     total energy              =   -5283.66821279 Ry
     estimated scf accuracy    <       0.00000400 Ry

     iteration # 22     ecut=    60.00 Ry     beta= 0.30
     Davidson diagonalization with overlap
     ethr =  7.36E-10,  avg # of iterations =  2.0

     negative rho (up, down):  3.494E-02 0.000E+00

     total cpu time spent up to now is     1893.5 secs

     total energy              =   -5283.66821292 Ry
     estimated scf accuracy    <       0.00000145 Ry

     iteration # 23     ecut=    60.00 Ry     beta= 0.30
     Davidson diagonalization with overlap
     ethr =  2.67E-10,  avg # of iterations =  2.0

     negative rho (up, down):  3.494E-02 0.000E+00

     total cpu time spent up to now is     1900.0 secs

     total energy              =   -5283.66821287 Ry
     estimated scf accuracy    <       0.00000271 Ry

     iteration # 24     ecut=    60.00 Ry     beta= 0.30
     Davidson diagonalization with overlap
     ethr =  2.67E-10,  avg # of iterations =  5.0

     negative rho (up, down):  3.494E-02 0.000E+00

     total cpu time spent up to now is     1907.7 secs

     total energy              =   -5283.66821275 Ry
     estimated scf accuracy    <       0.00001234 Ry

     iteration # 25     ecut=    60.00 Ry     beta= 0.30
     Davidson diagonalization with overlap
     ethr =  2.67E-10,  avg # of iterations =  2.0

     negative rho (up, down):  3.494E-02 0.000E+00

     total cpu time spent up to now is     1914.8 secs

     total energy              =   -5283.66821283 Ry
     estimated scf accuracy    <       0.00000504 Ry

     iteration # 26     ecut=    60.00 Ry     beta= 0.30
     Davidson diagonalization with overlap
     ethr =  2.67E-10,  avg # of iterations =  5.0

     negative rho (up, down):  3.494E-02 0.000E+00

     total cpu time spent up to now is     1922.4 secs

     total energy              =   -5283.66821277 Ry
     estimated scf accuracy    <       0.00001302 Ry

     iteration # 27     ecut=    60.00 Ry     beta= 0.30
     Davidson diagonalization with overlap
     ethr =  2.67E-10,  avg # of iterations =  2.0

     negative rho (up, down):  3.494E-02 0.000E+00

     total cpu time spent up to now is     1928.9 secs

     total energy              =   -5283.66821293 Ry
     estimated scf accuracy    <       0.00000290 Ry

     iteration # 28     ecut=    60.00 Ry     beta= 0.30
     Davidson diagonalization with overlap
     ethr =  2.67E-10,  avg # of iterations =  1.0

     negative rho (up, down):  3.494E-02 0.000E+00

     total cpu time spent up to now is     1934.9 secs

     total energy              =   -5283.66821297 Ry
     estimated scf accuracy    <       0.00000128 Ry

     iteration # 29     ecut=    60.00 Ry     beta= 0.30
     Davidson diagonalization with overlap
     ethr =  2.35E-10,  avg # of iterations =  1.0

     negative rho (up, down):  3.494E-02 0.000E+00

     total cpu time spent up to now is     1940.9 secs

     total energy              =   -5283.66821300 Ry
     estimated scf accuracy    <       0.00000041 Ry

     iteration # 30     ecut=    60.00 Ry     beta= 0.30
     Davidson diagonalization with overlap
     ethr =  7.59E-11,  avg # of iterations =  2.0

     negative rho (up, down):  3.494E-02 0.000E+00

     total cpu time spent up to now is     1947.2 secs

     total energy              =   -5283.66821300 Ry
     estimated scf accuracy    <       0.00000056 Ry

     iteration # 31     ecut=    60.00 Ry     beta= 0.30
     Davidson diagonalization with overlap
     ethr =  7.59E-11,  avg # of iterations =  1.0

     negative rho (up, down):  3.494E-02 0.000E+00

     total cpu time spent up to now is     1953.3 secs

     total energy              =   -5283.66821301 Ry
     estimated scf accuracy    <       0.00000031 Ry

     iteration # 32     ecut=    60.00 Ry     beta= 0.30
     Davidson diagonalization with overlap
     ethr =  5.74E-11,  avg # of iterations =  1.0

     negative rho (up, down):  3.494E-02 0.000E+00

     total cpu time spent up to now is     1959.6 secs

     total energy              =   -5283.66821302 Ry
     estimated scf accuracy    <       0.00000009 Ry

     iteration # 33     ecut=    60.00 Ry     beta= 0.30
     Davidson diagonalization with overlap
     ethr =  1.73E-11,  avg # of iterations =  2.0

     negative rho (up, down):  3.494E-02 0.000E+00

     total cpu time spent up to now is     1965.9 secs

     total energy              =   -5283.66821302 Ry
     estimated scf accuracy    <       0.00000005 Ry

     iteration # 34     ecut=    60.00 Ry     beta= 0.30
     Davidson diagonalization with overlap
     ethr =  9.29E-12,  avg # of iterations =  2.0

     negative rho (up, down):  3.494E-02 0.000E+00

     total cpu time spent up to now is     1973.1 secs

     total energy              =   -5283.66821302 Ry
     estimated scf accuracy    <       0.00000017 Ry

     iteration # 35     ecut=    60.00 Ry     beta= 0.30
     Davidson diagonalization with overlap
     ethr =  9.29E-12,  avg # of iterations =  3.0

     negative rho (up, down):  3.494E-02 0.000E+00

     total cpu time spent up to now is     1981.1 secs

     total energy              =   -5283.66821302 Ry
     estimated scf accuracy    <       0.00000045 Ry

     iteration # 36     ecut=    60.00 Ry     beta= 0.30
     Davidson diagonalization with overlap
     ethr =  9.29E-12,  avg # of iterations =  5.0

     negative rho (up, down):  3.494E-02 0.000E+00

     total cpu time spent up to now is     1989.5 secs

     total energy              =   -5283.66821302 Ry
     estimated scf accuracy    <       0.00000040 Ry

     iteration # 37     ecut=    60.00 Ry     beta= 0.30
     Davidson diagonalization with overlap
     ethr =  9.29E-12,  avg # of iterations =  5.0

     negative rho (up, down):  3.494E-02 0.000E+00

     total cpu time spent up to now is     1997.2 secs

     total energy              =   -5283.66821302 Ry
     estimated scf accuracy    <       0.00000023 Ry

     iteration # 38     ecut=    60.00 Ry     beta= 0.30
     Davidson diagonalization with overlap
     ethr =  9.29E-12,  avg # of iterations =  2.0

     negative rho (up, down):  3.494E-02 0.000E+00

     total cpu time spent up to now is     2004.0 secs

     total energy              =   -5283.66821303 Ry
     estimated scf accuracy    <       0.00000003 Ry

     iteration # 39     ecut=    60.00 Ry     beta= 0.30
     Davidson diagonalization with overlap
     ethr =  6.13E-12,  avg # of iterations =  2.0

     negative rho (up, down):  3.494E-02 0.000E+00

     total cpu time spent up to now is     2014.5 secs

     total energy              =   -5283.66821303 Ry
     estimated scf accuracy    <       0.00000004 Ry

     iteration # 40     ecut=    60.00 Ry     beta= 0.30
     Davidson diagonalization with overlap
     ethr =  6.13E-12,  avg # of iterations =  1.0

     negative rho (up, down):  3.494E-02 0.000E+00

     total cpu time spent up to now is     2021.2 secs

     total energy              =   -5283.66821302 Ry
     estimated scf accuracy    <       0.00000002 Ry

     iteration # 41     ecut=    60.00 Ry     beta= 0.30
     Davidson diagonalization with overlap
     ethr =  3.75E-12,  avg # of iterations =  2.0

     negative rho (up, down):  3.494E-02 0.000E+00

     total cpu time spent up to now is     2028.7 secs

     total energy              =   -5283.66821303 Ry
     estimated scf accuracy    <       0.00000003 Ry

     iteration # 42     ecut=    60.00 Ry     beta= 0.30
     Davidson diagonalization with overlap
     ethr =  3.75E-12,  avg # of iterations =  2.0

     negative rho (up, down):  3.494E-02 0.000E+00

     total cpu time spent up to now is     2035.5 secs

     total energy              =   -5283.66821303 Ry
     estimated scf accuracy    <       0.00000002 Ry

     iteration # 43     ecut=    60.00 Ry     beta= 0.30
     Davidson diagonalization with overlap
     ethr =  3.75E-12,  avg # of iterations =  1.0

     negative rho (up, down):  3.494E-02 0.000E+00

     total cpu time spent up to now is     2042.1 secs

     total energy              =   -5283.66821303 Ry
     estimated scf accuracy    <          5.9E-09 Ry

     iteration # 44     ecut=    60.00 Ry     beta= 0.30
     Davidson diagonalization with overlap
     ethr =  1.08E-12,  avg # of iterations =  1.0

     negative rho (up, down):  3.494E-02 0.000E+00

     total cpu time spent up to now is     2049.0 secs

     total energy              =   -5283.66821303 Ry
     estimated scf accuracy    <          9.4E-09 Ry

     iteration # 45     ecut=    60.00 Ry     beta= 0.30
     Davidson diagonalization with overlap
     ethr =  1.08E-12,  avg # of iterations =  1.0

     negative rho (up, down):  3.494E-02 0.000E+00

     total cpu time spent up to now is     2055.3 secs

     total energy              =   -5283.66821303 Ry
     estimated scf accuracy    <          9.5E-09 Ry

     iteration # 46     ecut=    60.00 Ry     beta= 0.30
     Davidson diagonalization with overlap
     ethr =  1.08E-12,  avg # of iterations =  2.0

     negative rho (up, down):  3.494E-02 0.000E+00

     total cpu time spent up to now is     2062.9 secs

     total energy              =   -5283.66821303 Ry
     estimated scf accuracy    <       0.00000002 Ry

     iteration # 47     ecut=    60.00 Ry     beta= 0.30
     Davidson diagonalization with overlap
     ethr =  1.08E-12,  avg # of iterations =  2.0

     negative rho (up, down):  3.494E-02 0.000E+00

     total cpu time spent up to now is     2070.3 secs

     total energy              =   -5283.66821303 Ry
     estimated scf accuracy    <       0.00000001 Ry

     iteration # 48     ecut=    60.00 Ry     beta= 0.30
     Davidson diagonalization with overlap
     ethr =  1.08E-12,  avg # of iterations =  1.0

     negative rho (up, down):  3.494E-02 0.000E+00

     total cpu time spent up to now is     2076.8 secs

     total energy              =   -5283.66821303 Ry
     estimated scf accuracy    <       0.00000001 Ry

     iteration # 49     ecut=    60.00 Ry     beta= 0.30
     Davidson diagonalization with overlap
     ethr =  1.08E-12,  avg # of iterations =  1.0

     negative rho (up, down):  3.494E-02 0.000E+00

     total cpu time spent up to now is     2085.6 secs

     total energy              =   -5283.66821303 Ry
     estimated scf accuracy    <          1.9E-09 Ry

     iteration # 50     ecut=    60.00 Ry     beta= 0.30
     Davidson diagonalization with overlap
     ethr =  3.45E-13,  avg # of iterations =  1.0

     negative rho (up, down):  3.494E-02 0.000E+00

     total cpu time spent up to now is     2092.4 secs

     End of self-consistent calculation

          k = 0.0000 0.0000 0.0000 ( 46961 PWs)   bands (ev):

   -69.6491 -69.6337 -69.6042 -69.5780 -69.5653 -69.5593 -69.5490 -69.5448
   -69.5256 -69.5012 -69.3231 -62.1308 -62.1252 -62.1069 -62.0935 -62.0798
   -62.0665 -62.0134 -61.9976 -61.9698 -61.8243 -54.3946 -54.3654 -54.2702
   -54.1206 -54.1076 -54.1028 -54.0905 -54.0632 -54.0585 -54.0253 -53.9108
   -41.0992 -41.0629 -41.0595 -41.0380 -41.0236 -41.0165 -41.0131 -41.0056
   -40.9855 -40.9668 -40.9593 -40.9486 -40.9415 -40.9352 -40.9231 -40.9183
   -40.9122 -40.9081 -40.9015 -40.8790 -40.8760 -40.8731 -40.8712 -40.8707
   -40.8629 -40.8400 -40.8328 -40.8193 -40.8080 -40.8038 -40.7663 -40.6794
   -40.5416 -36.1089 -36.0822 -36.0604 -36.0508 -36.0384 -36.0351 -36.0151
   -35.9973 -35.9899 -35.9821 -35.9723 -35.9521 -35.9464 -35.9387 -35.9247
   -35.9190 -35.9117 -35.9111 -35.8870 -35.8834 -35.8767 -35.8693 -35.8526
   -35.8520 -35.8390 -35.7740 -35.7427 -35.7156 -35.6634 -35.6603 -30.8274
   -30.7777 -30.6918 -30.6665 -30.6380 -30.6245 -30.6220 -30.6142 -30.5901
   -30.5707 -30.5507 -30.5330 -30.5276 -30.4910 -30.4856 -30.4771 -30.4727
   -30.4635 -30.4473 -30.4278 -30.4216 -30.4027 -30.3704 -30.3605 -30.3244
   -30.3142 -30.2970 -30.2804 -30.2617 -30.2415 -30.2248 -30.2038 -30.1678
   -10.8206  -9.7752  -9.3477  -9.2753  -9.1620  -9.0499  -8.6670  -8.4756
    -8.4334  -8.3958  -8.3725  -8.2516  -8.2300  -8.1353  -8.0681  -7.8866
    -7.8170  -7.7953  -7.6623  -7.6101  -7.5658  -7.5421  -7.5205  -7.4649
    -7.3777  -7.3508  -7.2365  -7.1800  -6.9880  -6.9451  -6.8176  -6.5256
    -4.0537  -4.0057  -3.9562  -3.8077  -3.0865  -2.9390  -2.8053  -2.7931
    -2.7310  -2.6867  -2.6545  -2.5751  -2.5180  -2.4542  -2.4440  -2.3217
    -2.1639  -2.1463  -2.0819  -1.9264  -1.9112  -1.8781  -1.8417  -1.7675
    -1.7027  -1.6282  -1.5919  -1.5230  -1.4699  -1.4675  -1.4427  -1.4372
    -1.4277  -1.4192  -1.4075  -1.3816  -1.3670  -1.3142  -1.2700  -1.2429
    -1.2330  -1.1970  -1.1446  -1.1019  -1.0940  -1.0543  -0.9972  -0.9625
    -0.9494  -0.9234  -0.8636  -0.8585  -0.8251  -0.7778  -0.7605  -0.7494
    -0.7199  -0.7122  -0.6746  -0.6430  -0.6278  -0.4894  -0.4603  -0.4231
    -0.4098  -0.3763  -0.3202  -0.2762  -0.2132  -0.2055  -0.1835  -0.0880
    -0.0788  -0.0424   0.0020   0.0395   0.1019   0.1622   0.3176   0.3511
     0.4301   0.5236   0.5379   0.6431   0.6640   0.7119   0.7993   0.9253
     0.9459   0.9592   1.1380   1.1564   1.2218   1.2436   1.2979   1.3634
     1.4788   1.6207   1.6306   1.7038   1.8187   1.8566   1.8842   2.1311
     2.5402   2.5891   2.6736   2.7186   2.7464   2.8080   2.8676   2.8795
     2.9248   2.9991   3.0178   3.0521   3.0702   3.1018   3.1524   3.1766
     3.1981   3.2422   3.2632   3.2703   3.2976   3.3308   3.3522   3.3656
     3.4157   3.4331   3.4410   3.4868   3.5089   3.5472   3.5752   3.6037
     3.6278   3.7121   3.7520   3.7905   3.8557   3.8837   3.9047   3.9245
     3.9526   4.0090   4.0214   4.0349   4.0662   4.0912   4.1138   4.1747
     4.1964   4.2422   4.2575   4.3575   4.3909   4.4178   4.4777   4.5017
     4.5346   4.5475   4.5620   4.6039   4.6218   4.7183

     the Fermi energy is     2.9201 ev

!    total energy              =   -5283.66821303 Ry
     estimated scf accuracy    <          1.4E-09 Ry
     smearing contrib. (-TS)   =      -0.04007277 Ry
     internal energy E=F+TS    =   -5283.62814026 Ry

     The total energy is F=E-TS. E is the sum of the following terms:
     one-electron contribution =  -56105.55194936 Ry
     hartree contribution      =   28076.29522449 Ry
     xc contribution           =    -787.59814816 Ry
     ewald contribution        =   23730.82625420 Ry
     one-center paw contrib.   =    -197.59952143 Ry

     convergence has been achieved in  50 iterations

     negative rho (up, down):  3.494E-02 0.000E+00

     Forces acting on atoms (cartesian axes, Ry/au):

     atom    1 type  1   force =    -0.00034489   -0.00127190    0.00578235
     atom    2 type  1   force =    -0.01014640   -0.00579411    0.00449336
     atom    3 type  1   force =     0.00064848   -0.00098437    0.00021268
     atom    4 type  1   force =    -0.00016207   -0.01697236    0.03103097
     atom    5 type  1   force =    -0.00446160    0.01228122    0.00237916
     atom    6 type  1   force =     0.00880262   -0.00370498    0.02692619
     atom    7 type  1   force =    -0.00023426    0.00107099    0.00181315
     atom    8 type  1   force =    -0.00032023   -0.00099630    0.00117678
     atom    9 type  1   force =     0.00068767    0.00099798    0.00052778
     atom   10 type  1   force =    -0.00129768   -0.00063266    0.00447613
     atom   11 type  1   force =     0.00204252   -0.00262365    0.00430431
     atom   12 type  2   force =     0.00254294   -0.00015523    0.00572792
     atom   13 type  2   force =    -0.00058122   -0.00276250    0.00250916
     atom   14 type  2   force =     0.02269461   -0.00353657    0.00842507
     atom   15 type  2   force =    -0.01103587    0.00100451    0.11440725
     atom   16 type  2   force =     0.00702142   -0.00085733    0.09495764
     atom   17 type  2   force =     0.00128771    0.00111225   -0.00060168
     atom   18 type  2   force =    -0.00060090   -0.00097706    0.00043941
     atom   19 type  2   force =     0.00054936   -0.00153804    0.00473476
     atom   20 type  2   force =     0.00238403   -0.00925949   -0.00946536
     atom   21 type  2   force =     0.00393967    0.02427078   -0.01409121
     atom   22 type  3   force =     0.00098964   -0.01566499    0.00314898
     atom   23 type  3   force =    -0.02444794   -0.00977241    0.00745066
     atom   24 type  3   force =     0.02941443    0.01319218   -0.01551436
     atom   25 type  3   force =     0.01542580   -0.01388126    0.07139924
     atom   26 type  3   force =    -0.00386213    0.01053688    0.12490230
     atom   27 type  3   force =     0.00047395   -0.00244573   -0.00059032
     atom   28 type  3   force =    -0.00798622    0.00021753    0.03348518
     atom   29 type  3   force =    -0.00087826    0.00011950    0.00534692
     atom   30 type  3   force =    -0.00046841    0.00096485    0.00354083
     atom   31 type  3   force =     0.00589221   -0.00339802   -0.01358941
     atom   32 type  3   force =    -0.01014831   -0.00357652   -0.01048574
     atom   33 type  4   force =     0.00170790   -0.00680914   -0.03395228
     atom   34 type  4   force =     0.00998364    0.01287053   -0.00477318
     atom   35 type  4   force =    -0.00317204   -0.01689938   -0.02005497
     atom   36 type  4   force =     0.00013388    0.01133048   -0.03443193
     atom   37 type  4   force =    -0.00045858   -0.00057122   -0.00607628
     atom   38 type  4   force =    -0.00014379    0.00181546   -0.00628832
     atom   39 type  4   force =     0.00010208   -0.00364025   -0.00487905
     atom   40 type  4   force =     0.00008848    0.00110311   -0.00030253
     atom   41 type  4   force =     0.00140887    0.00344316    0.00047215
     atom   42 type  4   force =     0.00127264    0.00275549   -0.00124394
     atom   43 type  4   force =    -0.00198301    0.00341756    0.00033565
     atom   44 type  4   force =    -0.00012159    0.00219489   -0.00149236
     atom   45 type  4   force =     0.00271693    0.00786514   -0.03982369
     atom   46 type  4   force =     0.00433485    0.00181904   -0.04807626
     atom   47 type  4   force =    -0.00987279   -0.00066590   -0.02472951
     atom   48 type  4   force =    -0.01560296   -0.00857891   -0.02489766
     atom   49 type  4   force =     0.00026474    0.00165009    0.00623489
     atom   50 type  4   force =     0.00115212    0.00264620    0.00681904
     atom   51 type  4   force =    -0.00000661    0.00063717   -0.00033227
     atom   52 type  4   force =    -0.00052413    0.00741774    0.00265911
     atom   53 type  4   force =    -0.00157028   -0.00521741   -0.03510690
     atom   54 type  4   force =    -0.00554567    0.00874835   -0.03531503
     atom   55 type  4   force =    -0.00009523    0.00665631   -0.03890207
     atom   56 type  4   force =    -0.00134038   -0.00495815   -0.03435624
     atom   57 type  4   force =    -0.01590920    0.00857373   -0.02561403
     atom   58 type  4   force =    -0.00918144   -0.00680974   -0.03150353
     atom   59 type  4   force =     0.01423978    0.01339017   -0.03144246
     atom   60 type  4   force =     0.00213642   -0.01126833   -0.01722141
     atom   61 type  4   force =    -0.00135603    0.00039338   -0.00160251
     atom   62 type  4   force =    -0.00139872    0.00125022   -0.00646699
     atom   63 type  4   force =    -0.00033743    0.00002032   -0.00221165
     atom   64 type  4   force =     0.00125687    0.00045671   -0.00468389

     Total force =     0.029844     Total SCF correction =     0.000085
     Energy error            =      1.0E-03 Ry
     Gradient error          =      1.6E-02 Ry/Bohr

     number of scf cycles    =   5
     number of bfgs steps    =   4

     energy             old  =   -5283.6672116359 Ry
     energy             new  =   -5283.6682130279 Ry

     CASE: energy            _new < energy            _old

     new trust radius        =       0.0322003157 bohr
     new conv_thr            =       0.0000000016 Ry


ATOMIC_POSITIONS (angstrom)
Ti               8.3764018071        0.0315043808       15.7700634455
Ti               0.0291331002        8.3621570543       11.5803477355    0   0   0
Ti               2.0904775250        4.2045156879       13.6782086931
Ti               8.3795041056        2.0957563981        9.4724378689    0   0   0
Ti               8.3750099733        6.2687152092        9.4933225157    0   0   0
Ti               4.2170671874        6.2898439467        9.4911460380    0   0   0
Ti               8.3734589678        2.0921152653       13.6450240133
Ti               8.3830213632        6.2671232066       13.6397250919
Ti               4.2024603555        6.2623429613       13.6456631945
Ti               2.1141763598        6.2598165925       15.7841051058
Ti               6.2895606870        6.2711165842       15.7750109806
V                8.3853899358        4.1269279118       15.6588902637
V                4.1984858677        4.1255162061       15.6499566888
V                4.1453105473        4.2119457891       11.5975026988    0   0   0
V                2.1879867013        0.0520231596        9.5054883674    0   0   0
V                2.1522427348        4.1319303501        9.4904675789    0   0   0
V                2.0798481764        8.3404241393       13.6523984776
V                6.3010422916        4.2268984552       13.7284026450
V                4.1845752060        2.1057061174       13.5505962280
V                2.1048639148        6.2714192178       11.5723879270    0   0   0
V                6.3158808164        6.1438819511       11.5700667150    0   0   0
Cr               4.1978784500       -0.0162263838       15.5360950808
Cr               0.1179128009        4.1786640750       11.5195623927    0   0   0
Cr               4.1681598842        8.2577799257       11.6615352591    0   0   0
Cr               6.1999882077        0.1106418811        9.6948923906    0   0   0
Cr               6.2007452456        4.0563627707        9.3394942948    0   0   0
Cr               6.3276367201        8.2844167384       13.5989647094
Cr               4.2149984025        2.0754774019        9.7444374941    0   0   0
Cr               2.1648423844        2.0874339689       15.5707664115
Cr               6.2226618465        2.0846673039       15.5358143307
Cr               2.0054620409        2.1149661174       11.6192682974    0   0   0
Cr               6.3992485267        2.2488278238       11.6549867199    0   0   0
C                8.3671464633        0.0123762133        9.4921945368    0   0   0
C                8.3685510870        4.1683341954        9.4949958325    0   0   0
C                4.2233794382        0.0660683478        9.5137772640    0   0   0
C                4.2071394793        4.1170355077        9.4900603783    0   0   0
C                8.3749160682       -0.0060195081       13.7665948148
C                8.3624594734        4.1669150034       13.7518244486
C                4.2171984077        0.0165382604       13.6927549217
C                4.2156362484        4.1344901946       13.7110956859
C                2.1895312004        0.0650244590       15.9013779603
C                2.1136424765        4.1037744822       15.8992464364
C                6.2051904179        0.0672794874       15.8907610770
C                6.2775095079        4.1045956012       15.8557280285
C                2.1521326937        0.0175132539       11.5903255372    0   0   0
C                2.1078429860        4.1683083653       11.5671868517    0   0   0
C                6.2417937451        0.0188099573       11.6002801854    0   0   0
C                6.3283074126        4.1569384024       11.5682471185    0   0   0
C                8.3739646577        2.1361051796       15.8973580144
C                8.3779002321        6.2305816203       15.9554996921
C                4.2068170352        2.0483883433       15.7910783934
C                4.2077868500        6.3019243041       15.8786153053
C                0.0147673152        2.1438801594       11.5939557114    0   0   0
C                0.0200697416        6.2277703895       11.5821679336    0   0   0
C                4.2182428542        2.0594943016       11.6100232202    0   0   0
C                4.2117703951        6.2583221129       11.5919858628    0   0   0
C                2.1713130363        2.0860319016        9.4919958919    0   0   0
C                2.1164500536        6.2753611976        9.5156635851    0   0   0
C                6.2203151227        2.0809934926        9.4961719556    0   0   0
C                6.2861737462        6.2618311600        9.5257047400    0   0   0
C                2.1421848108        2.0625695716       13.7198753050
C                2.1091510083        6.2913385472       13.7641106640
C                6.2579154511        2.0755792588       13.6875210106
C                6.2969949714        6.2513438481       13.7352519578



     Writing config-only to output data dir ./tmp/hec3_CrTiV_f100_CO_clean.save/ :
     XML data file
     NEW-OLD atomic charge density approx. for the potential

     Check: negative core charge=   -0.000005

     negative rho (up, down):  3.480E-02 0.000E+00

     total cpu time spent up to now is     2102.5 secs

     Self-consistent Calculation

     iteration #  1     ecut=    60.00 Ry     beta= 0.30
     Davidson diagonalization with overlap
     ethr =  1.00E-06,  avg # of iterations =  7.0

     negative rho (up, down):  3.480E-02 0.000E+00

     total cpu time spent up to now is     2113.9 secs

     total energy              =   -5283.66357093 Ry
     estimated scf accuracy    <       0.01245608 Ry

     iteration #  2     ecut=    60.00 Ry     beta= 0.30
     Davidson diagonalization with overlap
     c_bands:  1 eigenvalues not converged
     ethr =  2.29E-06,  avg # of iterations = 20.0

     negative rho (up, down):  3.483E-02 0.000E+00

     total cpu time spent up to now is     2130.6 secs

     total energy              =   -5283.60042936 Ry
     estimated scf accuracy    <       5.75493293 Ry

     iteration #  3     ecut=    60.00 Ry     beta= 0.30
     Davidson diagonalization with overlap
     ethr =  2.29E-06,  avg # of iterations = 16.0

     negative rho (up, down):  3.480E-02 0.000E+00

     total cpu time spent up to now is     2145.1 secs

     total energy              =   -5283.66702914 Ry
     estimated scf accuracy    <       0.06285009 Ry

     iteration #  4     ecut=    60.00 Ry     beta= 0.30
     Davidson diagonalization with overlap
     ethr =  2.29E-06,  avg # of iterations =  5.0

     negative rho (up, down):  3.481E-02 0.000E+00

     total cpu time spent up to now is     2153.6 secs

     total energy              =   -5283.66878390 Ry
     estimated scf accuracy    <       0.00461456 Ry

     iteration #  5     ecut=    60.00 Ry     beta= 0.30
     Davidson diagonalization with overlap
     ethr =  8.48E-07,  avg # of iterations =  5.0

     negative rho (up, down):  3.481E-02 0.000E+00

     total cpu time spent up to now is     2162.7 secs

     total energy              =   -5283.66903443 Ry
     estimated scf accuracy    <       0.00329231 Ry

     iteration #  6     ecut=    60.00 Ry     beta= 0.30
     Davidson diagonalization with overlap
     ethr =  6.05E-07,  avg # of iterations =  2.0

     negative rho (up, down):  3.481E-02 0.000E+00

     total cpu time spent up to now is     2170.1 secs

     total energy              =   -5283.66906902 Ry
     estimated scf accuracy    <       0.00449615 Ry

     iteration #  7     ecut=    60.00 Ry     beta= 0.30
     Davidson diagonalization with overlap
     ethr =  6.05E-07,  avg # of iterations =  2.0

     negative rho (up, down):  3.481E-02 0.000E+00

     total cpu time spent up to now is     2178.9 secs

     total energy              =   -5283.66915766 Ry
     estimated scf accuracy    <       0.00192627 Ry

     iteration #  8     ecut=    60.00 Ry     beta= 0.30
     Davidson diagonalization with overlap
     ethr =  3.54E-07,  avg # of iterations =  2.0

     negative rho (up, down):  3.481E-02 0.000E+00

     total cpu time spent up to now is     2186.2 secs

     total energy              =   -5283.66919589 Ry
     estimated scf accuracy    <       0.00128891 Ry

     iteration #  9     ecut=    60.00 Ry     beta= 0.30
     Davidson diagonalization with overlap
     ethr =  2.37E-07,  avg # of iterations =  1.0

     negative rho (up, down):  3.481E-02 0.000E+00

     total cpu time spent up to now is     2192.7 secs

     total energy              =   -5283.66922227 Ry
     estimated scf accuracy    <       0.00037214 Ry

     iteration # 10     ecut=    60.00 Ry     beta= 0.30
     Davidson diagonalization with overlap
     ethr =  6.84E-08,  avg # of iterations =  2.0

     negative rho (up, down):  3.481E-02 0.000E+00

     total cpu time spent up to now is     2200.0 secs

     total energy              =   -5283.66923159 Ry
     estimated scf accuracy    <       0.00021449 Ry

     iteration # 11     ecut=    60.00 Ry     beta= 0.30
     Davidson diagonalization with overlap
     ethr =  3.94E-08,  avg # of iterations =  2.0

     negative rho (up, down):  3.481E-02 0.000E+00

     total cpu time spent up to now is     2207.2 secs

     total energy              =   -5283.66923578 Ry
     estimated scf accuracy    <       0.00015856 Ry

     iteration # 12     ecut=    60.00 Ry     beta= 0.30
     Davidson diagonalization with overlap
     ethr =  2.91E-08,  avg # of iterations =  2.0

     negative rho (up, down):  3.482E-02 0.000E+00

     total cpu time spent up to now is     2214.1 secs

     total energy              =   -5283.66922743 Ry
     estimated scf accuracy    <       0.00029122 Ry

     iteration # 13     ecut=    60.00 Ry     beta= 0.30
     Davidson diagonalization with overlap
     ethr =  2.91E-08,  avg # of iterations =  6.0

     negative rho (up, down):  3.481E-02 0.000E+00

     total cpu time spent up to now is     2223.4 secs

     total energy              =   -5283.66917210 Ry
     estimated scf accuracy    <       0.00552918 Ry

     iteration # 14     ecut=    60.00 Ry     beta= 0.30
     Davidson diagonalization with overlap
     ethr =  2.91E-08,  avg # of iterations =  5.0

     negative rho (up, down):  3.481E-02 0.000E+00

     total cpu time spent up to now is     2231.9 secs

     total energy              =   -5283.66923852 Ry
     estimated scf accuracy    <       0.00016208 Ry

     iteration # 15     ecut=    60.00 Ry     beta= 0.30
     Davidson diagonalization with overlap
     ethr =  2.91E-08,  avg # of iterations =  1.0

     negative rho (up, down):  3.481E-02 0.000E+00

     total cpu time spent up to now is     2238.4 secs

     total energy              =   -5283.66924308 Ry
     estimated scf accuracy    <       0.00004270 Ry

     iteration # 16     ecut=    60.00 Ry     beta= 0.30
     Davidson diagonalization with overlap
     ethr =  7.85E-09,  avg # of iterations =  5.0

     negative rho (up, down):  3.481E-02 0.000E+00

     total cpu time spent up to now is     2246.6 secs

     total energy              =   -5283.66924376 Ry
     estimated scf accuracy    <       0.00005460 Ry

     iteration # 17     ecut=    60.00 Ry     beta= 0.30
     Davidson diagonalization with overlap
     ethr =  7.85E-09,  avg # of iterations =  1.0

     negative rho (up, down):  3.481E-02 0.000E+00

     total cpu time spent up to now is     2252.9 secs

     total energy              =   -5283.66924501 Ry
     estimated scf accuracy    <       0.00001762 Ry

     iteration # 18     ecut=    60.00 Ry     beta= 0.30
     Davidson diagonalization with overlap
     ethr =  3.24E-09,  avg # of iterations =  2.0

     negative rho (up, down):  3.481E-02 0.000E+00

     total cpu time spent up to now is     2260.3 secs

     total energy              =   -5283.66924486 Ry
     estimated scf accuracy    <       0.00002980 Ry

     iteration # 19     ecut=    60.00 Ry     beta= 0.30
     Davidson diagonalization with overlap
     ethr =  3.24E-09,  avg # of iterations =  1.0

     negative rho (up, down):  3.481E-02 0.000E+00

     total cpu time spent up to now is     2266.8 secs

     total energy              =   -5283.66924548 Ry
     estimated scf accuracy    <       0.00000886 Ry

     iteration # 20     ecut=    60.00 Ry     beta= 0.30
     Davidson diagonalization with overlap
     ethr =  1.63E-09,  avg # of iterations =  2.0

     negative rho (up, down):  3.481E-02 0.000E+00

     total cpu time spent up to now is     2274.1 secs

     total energy              =   -5283.66924561 Ry
     estimated scf accuracy    <       0.00000651 Ry

     iteration # 21     ecut=    60.00 Ry     beta= 0.30
     Davidson diagonalization with overlap
     ethr =  1.20E-09,  avg # of iterations =  2.0

     negative rho (up, down):  3.481E-02 0.000E+00

     total cpu time spent up to now is     2284.0 secs

     total energy              =   -5283.66924574 Ry
     estimated scf accuracy    <       0.00000572 Ry

     iteration # 22     ecut=    60.00 Ry     beta= 0.30
     Davidson diagonalization with overlap
     ethr =  1.05E-09,  avg # of iterations =  1.0

     negative rho (up, down):  3.481E-02 0.000E+00

     total cpu time spent up to now is     2290.5 secs

     total energy              =   -5283.66924588 Ry
     estimated scf accuracy    <       0.00000210 Ry

     iteration # 23     ecut=    60.00 Ry     beta= 0.30
     Davidson diagonalization with overlap
     ethr =  3.86E-10,  avg # of iterations =  2.0

     negative rho (up, down):  3.481E-02 0.000E+00

     total cpu time spent up to now is     2297.9 secs

     total energy              =   -5283.66924583 Ry
     estimated scf accuracy    <       0.00000368 Ry

     iteration # 24     ecut=    60.00 Ry     beta= 0.30
     Davidson diagonalization with overlap
     ethr =  3.86E-10,  avg # of iterations =  2.0

     negative rho (up, down):  3.481E-02 0.000E+00

     total cpu time spent up to now is     2305.0 secs

     total energy              =   -5283.66924585 Ry
     estimated scf accuracy    <       0.00000312 Ry

     iteration # 25     ecut=    60.00 Ry     beta= 0.30
     Davidson diagonalization with overlap
     ethr =  3.86E-10,  avg # of iterations =  2.0

     negative rho (up, down):  3.481E-02 0.000E+00

     total cpu time spent up to now is     2312.0 secs

     total energy              =   -5283.66924575 Ry
     estimated scf accuracy    <       0.00001359 Ry

     iteration # 26     ecut=    60.00 Ry     beta= 0.30
     Davidson diagonalization with overlap
     ethr =  3.86E-10,  avg # of iterations =  1.0

     negative rho (up, down):  3.481E-02 0.000E+00

     total cpu time spent up to now is     2318.7 secs

     total energy              =   -5283.66924591 Ry
     estimated scf accuracy    <       0.00000265 Ry

     iteration # 27     ecut=    60.00 Ry     beta= 0.30
     Davidson diagonalization with overlap
     ethr =  3.86E-10,  avg # of iterations =  1.0

     negative rho (up, down):  3.481E-02 0.000E+00

     total cpu time spent up to now is     2325.3 secs

     total energy              =   -5283.66924597 Ry
     estimated scf accuracy    <       0.00000109 Ry

     iteration # 28     ecut=    60.00 Ry     beta= 0.30
     Davidson diagonalization with overlap
     ethr =  2.00E-10,  avg # of iterations =  1.0

     negative rho (up, down):  3.481E-02 0.000E+00

     total cpu time spent up to now is     2331.9 secs

     total energy              =   -5283.66924599 Ry
     estimated scf accuracy    <       0.00000068 Ry

     iteration # 29     ecut=    60.00 Ry     beta= 0.30
     Davidson diagonalization with overlap
     ethr =  1.24E-10,  avg # of iterations =  1.0

     negative rho (up, down):  3.481E-02 0.000E+00

     total cpu time spent up to now is     2338.8 secs

     total energy              =   -5283.66924598 Ry
     estimated scf accuracy    <       0.00000127 Ry

     iteration # 30     ecut=    60.00 Ry     beta= 0.30
     Davidson diagonalization with overlap
     ethr =  1.24E-10,  avg # of iterations =  1.0

     negative rho (up, down):  3.481E-02 0.000E+00

     total cpu time spent up to now is     2345.5 secs

     total energy              =   -5283.66924600 Ry
     estimated scf accuracy    <       0.00000037 Ry

     iteration # 31     ecut=    60.00 Ry     beta= 0.30
     Davidson diagonalization with overlap
     ethr =  6.84E-11,  avg # of iterations =  1.0

     negative rho (up, down):  3.481E-02 0.000E+00

     total cpu time spent up to now is     2351.9 secs

     total energy              =   -5283.66924601 Ry
     estimated scf accuracy    <       0.00000019 Ry

     iteration # 32     ecut=    60.00 Ry     beta= 0.30
     Davidson diagonalization with overlap
     ethr =  3.41E-11,  avg # of iterations =  1.0

     negative rho (up, down):  3.481E-02 0.000E+00

     total cpu time spent up to now is     2358.2 secs

     total energy              =   -5283.66924602 Ry
     estimated scf accuracy    <       0.00000009 Ry

     iteration # 33     ecut=    60.00 Ry     beta= 0.30
     Davidson diagonalization with overlap
     ethr =  1.69E-11,  avg # of iterations =  2.0

     negative rho (up, down):  3.481E-02 0.000E+00

     total cpu time spent up to now is     2365.4 secs

     total energy              =   -5283.66924602 Ry
     estimated scf accuracy    <       0.00000020 Ry

     iteration # 34     ecut=    60.00 Ry     beta= 0.30
     Davidson diagonalization with overlap
     ethr =  1.69E-11,  avg # of iterations =  2.0

     negative rho (up, down):  3.481E-02 0.000E+00

     total cpu time spent up to now is     2373.3 secs

     total energy              =   -5283.66924602 Ry
     estimated scf accuracy    <       0.00000018 Ry

     iteration # 35     ecut=    60.00 Ry     beta= 0.30
     Davidson diagonalization with overlap
     ethr =  1.69E-11,  avg # of iterations =  2.0

     negative rho (up, down):  3.481E-02 0.000E+00

     total cpu time spent up to now is     2380.8 secs

     total energy              =   -5283.66924602 Ry
     estimated scf accuracy    <       0.00000019 Ry

     iteration # 36     ecut=    60.00 Ry     beta= 0.30
     Davidson diagonalization with overlap
     ethr =  1.69E-11,  avg # of iterations =  1.0

     negative rho (up, down):  3.481E-02 0.000E+00

     total cpu time spent up to now is     2387.7 secs

     total energy              =   -5283.66924602 Ry
     estimated scf accuracy    <       0.00000009 Ry

     iteration # 37     ecut=    60.00 Ry     beta= 0.30
     Davidson diagonalization with overlap
     ethr =  1.57E-11,  avg # of iterations =  1.0

     negative rho (up, down):  3.481E-02 0.000E+00

     total cpu time spent up to now is     2394.3 secs

     total energy              =   -5283.66924602 Ry
     estimated scf accuracy    <       0.00000007 Ry

     iteration # 38     ecut=    60.00 Ry     beta= 0.30
     Davidson diagonalization with overlap
     ethr =  1.26E-11,  avg # of iterations =  1.0

     negative rho (up, down):  3.481E-02 0.000E+00

     total cpu time spent up to now is     2400.8 secs

     total energy              =   -5283.66924602 Ry
     estimated scf accuracy    <       0.00000004 Ry

     iteration # 39     ecut=    60.00 Ry     beta= 0.30
     Davidson diagonalization with overlap
     ethr =  6.56E-12,  avg # of iterations =  1.0

     negative rho (up, down):  3.481E-02 0.000E+00

     total cpu time spent up to now is     2407.2 secs

     total energy              =   -5283.66924602 Ry
     estimated scf accuracy    <       0.00000004 Ry

     iteration # 40     ecut=    60.00 Ry     beta= 0.30
     Davidson diagonalization with overlap
     ethr =  6.56E-12,  avg # of iterations =  1.0

     negative rho (up, down):  3.481E-02 0.000E+00

     total cpu time spent up to now is     2413.9 secs

     total energy              =   -5283.66924602 Ry
     estimated scf accuracy    <       0.00000004 Ry

     iteration # 41     ecut=    60.00 Ry     beta= 0.30
     Davidson diagonalization with overlap
     ethr =  6.56E-12,  avg # of iterations =  1.0

     negative rho (up, down):  3.481E-02 0.000E+00

     total cpu time spent up to now is     2420.3 secs

     total energy              =   -5283.66924602 Ry
     estimated scf accuracy    <       0.00000003 Ry

     iteration # 42     ecut=    60.00 Ry     beta= 0.30
     Davidson diagonalization with overlap
     ethr =  5.84E-12,  avg # of iterations =  1.0

     negative rho (up, down):  3.481E-02 0.000E+00

     total cpu time spent up to now is     2426.7 secs

     total energy              =   -5283.66924603 Ry
     estimated scf accuracy    <       0.00000002 Ry

     iteration # 43     ecut=    60.00 Ry     beta= 0.30
     Davidson diagonalization with overlap
     ethr =  3.15E-12,  avg # of iterations =  1.0

     negative rho (up, down):  3.481E-02 0.000E+00

     total cpu time spent up to now is     2434.1 secs

     total energy              =   -5283.66924603 Ry
     estimated scf accuracy    <          7.2E-09 Ry

     iteration # 44     ecut=    60.00 Ry     beta= 0.30
     Davidson diagonalization with overlap
     ethr =  1.32E-12,  avg # of iterations =  1.0

     negative rho (up, down):  3.481E-02 0.000E+00

     total cpu time spent up to now is     2440.6 secs

     total energy              =   -5283.66924602 Ry
     estimated scf accuracy    <       0.00000001 Ry

     iteration # 45     ecut=    60.00 Ry     beta= 0.30
     Davidson diagonalization with overlap
     ethr =  1.32E-12,  avg # of iterations =  1.0

     negative rho (up, down):  3.481E-02 0.000E+00

     total cpu time spent up to now is     2446.8 secs

     total energy              =   -5283.66924602 Ry
     estimated scf accuracy    <       0.00000001 Ry

     iteration # 46     ecut=    60.00 Ry     beta= 0.30
     Davidson diagonalization with overlap
     ethr =  1.32E-12,  avg # of iterations =  2.0

     negative rho (up, down):  3.481E-02 0.000E+00

     total cpu time spent up to now is     2453.9 secs

     total energy              =   -5283.66924603 Ry
     estimated scf accuracy    <       0.00000003 Ry

     iteration # 47     ecut=    60.00 Ry     beta= 0.30
     Davidson diagonalization with overlap
     ethr =  1.32E-12,  avg # of iterations =  2.0

     negative rho (up, down):  3.481E-02 0.000E+00

     total cpu time spent up to now is     2461.3 secs

     total energy              =   -5283.66924603 Ry
     estimated scf accuracy    <       0.00000002 Ry

     iteration # 48     ecut=    60.00 Ry     beta= 0.30
     Davidson diagonalization with overlap
     ethr =  1.32E-12,  avg # of iterations =  1.0

     negative rho (up, down):  3.481E-02 0.000E+00

     total cpu time spent up to now is     2468.1 secs

     End of self-consistent calculation

          k = 0.0000 0.0000 0.0000 ( 46961 PWs)   bands (ev):

   -69.6460 -69.6373 -69.6005 -69.5790 -69.5676 -69.5629 -69.5524 -69.5469
   -69.5135 -69.5034 -69.3253 -62.1339 -62.1280 -62.1107 -62.0928 -62.0822
   -62.0639 -62.0149 -61.9997 -61.9689 -61.8216 -54.3981 -54.3687 -54.2731
   -54.1243 -54.1093 -54.1060 -54.0926 -54.0676 -54.0628 -54.0275 -53.9144
   -41.0981 -41.0642 -41.0590 -41.0415 -41.0279 -41.0201 -41.0158 -40.9985
   -40.9810 -40.9686 -40.9609 -40.9485 -40.9433 -40.9375 -40.9190 -40.9146
   -40.9119 -40.9079 -40.8994 -40.8815 -40.8785 -40.8752 -40.8733 -40.8623
   -40.8602 -40.8420 -40.8342 -40.8115 -40.8080 -40.8051 -40.7680 -40.6819
   -40.5439 -36.1098 -36.0846 -36.0628 -36.0538 -36.0400 -36.0380 -36.0159
   -35.9976 -35.9884 -35.9850 -35.9749 -35.9542 -35.9469 -35.9406 -35.9262
   -35.9212 -35.9139 -35.9109 -35.8883 -35.8854 -35.8755 -35.8674 -35.8543
   -35.8537 -35.8400 -35.7760 -35.7400 -35.7112 -35.6620 -35.6570 -30.8313
   -30.7814 -30.6946 -30.6696 -30.6412 -30.6275 -30.6246 -30.6173 -30.5933
   -30.5737 -30.5542 -30.5357 -30.5303 -30.4936 -30.4874 -30.4799 -30.4757
   -30.4654 -30.4495 -30.4301 -30.4241 -30.4056 -30.3727 -30.3630 -30.3294
   -30.3161 -30.3007 -30.2834 -30.2636 -30.2439 -30.2278 -30.2070 -30.1731
   -10.8205  -9.7716  -9.3486  -9.2752  -9.1633  -9.0504  -8.6662  -8.4716
    -8.4296  -8.3930  -8.3701  -8.2540  -8.2298  -8.1372  -8.0692  -7.8872
    -7.8185  -7.7957  -7.6638  -7.6117  -7.5654  -7.5437  -7.5142  -7.4674
    -7.3730  -7.3464  -7.2373  -7.1764  -6.9903  -6.9469  -6.8119  -6.5227
    -4.0540  -4.0066  -3.9570  -3.8061  -3.0849  -2.9391  -2.7982  -2.7880
    -2.7319  -2.6885  -2.6550  -2.5739  -2.5189  -2.4551  -2.4452  -2.3215
    -2.1630  -2.1445  -2.0816  -1.9265  -1.9111  -1.8792  -1.8433  -1.7660
    -1.6981  -1.6272  -1.5891  -1.5259  -1.4701  -1.4667  -1.4453  -1.4393
    -1.4277  -1.4218  -1.4078  -1.3786  -1.3657  -1.3107  -1.2712  -1.2397
    -1.2299  -1.1963  -1.1411  -1.1024  -1.0849  -1.0544  -0.9976  -0.9626
    -0.9503  -0.9180  -0.8655  -0.8587  -0.8258  -0.7777  -0.7591  -0.7473
    -0.7199  -0.7138  -0.6755  -0.6444  -0.6223  -0.4790  -0.4579  -0.4267
    -0.4064  -0.3799  -0.3160  -0.2760  -0.2121  -0.2047  -0.1837  -0.0884
    -0.0791  -0.0406   0.0021   0.0384   0.0970   0.1640   0.3189   0.3545
     0.4298   0.5228   0.5380   0.6468   0.6638   0.7128   0.8008   0.9267
     0.9475   0.9569   1.1357   1.1566   1.2206   1.2431   1.2975   1.3600
     1.4780   1.6198   1.6299   1.7031   1.8205   1.8567   1.8844   2.1322
     2.5327   2.5888   2.6699   2.7177   2.7427   2.8020   2.8655   2.8749
     2.9243   2.9994   3.0199   3.0528   3.0684   3.1052   3.1534   3.1756
     3.1950   3.2424   3.2621   3.2693   3.2964   3.3299   3.3495   3.3663
     3.4144   3.4331   3.4449   3.4870   3.5101   3.5438   3.5728   3.6038
     3.6286   3.7065   3.7522   3.7897   3.8526   3.8814   3.9019   3.9264
     3.9518   4.0083   4.0182   4.0343   4.0637   4.0918   4.1147   4.1712
     4.1962   4.2425   4.2564   4.3547   4.3909   4.4175   4.4746   4.4995
     4.5324   4.5469   4.5601   4.6032   4.6194   4.7149

     the Fermi energy is     2.9182 ev

!    total energy              =   -5283.66924602 Ry
     estimated scf accuracy    <          8.9E-10 Ry
     smearing contrib. (-TS)   =      -0.03925307 Ry
     internal energy E=F+TS    =   -5283.62999295 Ry

     The total energy is F=E-TS. E is the sum of the following terms:
     one-electron contribution =  -56095.60670947 Ry
     hartree contribution      =   28071.30487518 Ry
     xc contribution           =    -787.58371309 Ry
     ewald contribution        =   23725.85492510 Ry
     one-center paw contrib.   =    -197.59937067 Ry

     convergence has been achieved in  48 iterations

     negative rho (up, down):  3.481E-02 0.000E+00

     Forces acting on atoms (cartesian axes, Ry/au):

     atom    1 type  1   force =    -0.00004933   -0.00199896    0.00418422
     atom    2 type  1   force =    -0.01008050   -0.00567177    0.00360851
     atom    3 type  1   force =     0.00032825   -0.00081999    0.00017244
     atom    4 type  1   force =    -0.00020591   -0.01695772    0.03108993
     atom    5 type  1   force =    -0.00450005    0.01230600    0.00234387
     atom    6 type  1   force =     0.00877258   -0.00363103    0.02693162
     atom    7 type  1   force =    -0.00029826    0.00094551    0.00370796
     atom    8 type  1   force =     0.00007958   -0.00048397    0.00392273
     atom    9 type  1   force =     0.00037937    0.00076945    0.00194339
     atom   10 type  1   force =    -0.00129272   -0.00170191    0.00316142
     atom   11 type  1   force =     0.00186920   -0.00401473    0.00352725
     atom   12 type  2   force =     0.00174384   -0.00175238    0.00289353
     atom   13 type  2   force =    -0.00032896   -0.00430740    0.00130753
     atom   14 type  2   force =     0.02286349   -0.00364580    0.00797356
     atom   15 type  2   force =    -0.01094452    0.00101076    0.11453257
     atom   16 type  2   force =     0.00696625   -0.00088016    0.09503221
     atom   17 type  2   force =     0.00123637    0.00149979   -0.00052702
     atom   18 type  2   force =    -0.00008736   -0.00124806   -0.00105814
     atom   19 type  2   force =     0.00094881   -0.00177563    0.00739965
     atom   20 type  2   force =     0.00247800   -0.00947014   -0.00973865
     atom   21 type  2   force =     0.00380373    0.02351984   -0.01462424
     atom   22 type  3   force =     0.00129834   -0.01630941    0.00220944
     atom   23 type  3   force =    -0.02421257   -0.01017683    0.00719319
     atom   24 type  3   force =     0.02970591    0.01372894   -0.01543676
     atom   25 type  3   force =     0.01530192   -0.01393719    0.07140055
     atom   26 type  3   force =    -0.00387615    0.01059794    0.12482087
     atom   27 type  3   force =     0.00001860   -0.00155809   -0.00057079
     atom   28 type  3   force =    -0.00803993    0.00024055    0.03336545
     atom   29 type  3   force =    -0.00074795   -0.00125694    0.00338231
     atom   30 type  3   force =    -0.00084503   -0.00052081    0.00277257
     atom   31 type  3   force =     0.00601425   -0.00316583   -0.01404127
     atom   32 type  3   force =    -0.01058889   -0.00285728   -0.01045317
     atom   33 type  4   force =     0.00172475   -0.00684324   -0.03403068
     atom   34 type  4   force =     0.00997481    0.01282888   -0.00499541
     atom   35 type  4   force =    -0.00319417   -0.01692158   -0.02038493
     atom   36 type  4   force =     0.00012415    0.01131201   -0.03430265
     atom   37 type  4   force =    -0.00027062   -0.00055940   -0.00362536
     atom   38 type  4   force =    -0.00001881    0.00135244   -0.00425297
     atom   39 type  4   force =    -0.00013909   -0.00404921   -0.00268626
     atom   40 type  4   force =     0.00014688    0.00070189    0.00049704
     atom   41 type  4   force =     0.00124012    0.00423207   -0.00034575
     atom   42 type  4   force =     0.00137865    0.00422088   -0.00119658
     atom   43 type  4   force =    -0.00158427    0.00421826   -0.00062272
     atom   44 type  4   force =    -0.00020728    0.00396234   -0.00133361
     atom   45 type  4   force =     0.00252179    0.00791510   -0.03986293
     atom   46 type  4   force =     0.00431848    0.00188060   -0.04808156
     atom   47 type  4   force =    -0.00969865   -0.00066103   -0.02472331
     atom   48 type  4   force =    -0.01574081   -0.00853702   -0.02504266
     atom   49 type  4   force =     0.00045735    0.00198384    0.00571873
     atom   50 type  4   force =     0.00115922    0.00458236    0.00743131
     atom   51 type  4   force =    -0.00032390    0.00290512   -0.00055038
     atom   52 type  4   force =    -0.00060428    0.00893086    0.00350754
     atom   53 type  4   force =    -0.00152307   -0.00523822   -0.03536915
     atom   54 type  4   force =    -0.00552125    0.00892128   -0.03644388
     atom   55 type  4   force =    -0.00009819    0.00674272   -0.03982457
     atom   56 type  4   force =    -0.00133603   -0.00516960   -0.03506063
     atom   57 type  4   force =    -0.01590985    0.00863282   -0.02559135
     atom   58 type  4   force =    -0.00913798   -0.00680001   -0.03164539
     atom   59 type  4   force =     0.01426859    0.01338844   -0.03140708
     atom   60 type  4   force =     0.00215085   -0.01129900   -0.01725082
     atom   61 type  4   force =    -0.00166581   -0.00004802   -0.00039730
     atom   62 type  4   force =    -0.00122108    0.00085505   -0.00573009
     atom   63 type  4   force =    -0.00011815   -0.00022999   -0.00073434
     atom   64 type  4   force =     0.00113730    0.00031264   -0.00408898

     Total force =     0.030182     Total SCF correction =     0.000072
     Energy error            =      1.0E-03 Ry
     Gradient error          =      1.6E-02 Ry/Bohr

     number of scf cycles    =   6
     number of bfgs steps    =   5

     energy             old  =   -5283.6682130279 Ry
     energy             new  =   -5283.6692460237 Ry

     CASE: energy            _new < energy            _old

     new trust radius        =       0.0483004735 bohr
     new conv_thr            =       0.0000000016 Ry


ATOMIC_POSITIONS (angstrom)
Ti               8.3753090293        0.0293575379       15.7719887114
Ti               0.0291331002        8.3621570543       11.5803477355    0   0   0
Ti               2.0905946986        4.2058609868       13.6796209041
Ti               8.3795041056        2.0957563981        9.4724378689    0   0   0
Ti               8.3750099733        6.2687152092        9.4933225157    0   0   0
Ti               4.2170671874        6.2898439467        9.4911460380    0   0   0
Ti               8.3731701742        2.0941482002       13.6416048688
Ti               8.3828231759        6.2660133287       13.6332986445
Ti               4.2026076711        6.2623322957       13.6406088496
Ti               2.1118472699        6.2585052723       15.7857327453
Ti               6.2936171989        6.2679857655       15.7772712393
V                8.3901840015        4.1274771616       15.6614740485
V                4.1972780556        4.1225897813       15.6514673643
V                4.1453105473        4.2119457891       11.5975026988    0   0   0
V                2.1879867013        0.0520231596        9.5054883674    0   0   0
V                2.1522427348        4.1319303501        9.4904675789    0   0   0
V                2.0787413510        8.3409606825       13.6523246864
V                6.3013200940        4.2288846796       13.7348150462
V                4.1832356389        2.1067660792       13.5479990419
V                2.1048639148        6.2714192178       11.5723879270    0   0   0
V                6.3158808164        6.1438819511       11.5700667150    0   0   0
Cr               4.1988719190       -0.0417662740       15.5359703079
Cr               0.1179128009        4.1786640750       11.5195623927    0   0   0
Cr               4.1681598842        8.2577799257       11.6615352591    0   0   0
Cr               6.1999882077        0.1106418811        9.6948923906    0   0   0
Cr               6.2007452456        4.0563627707        9.3394942948    0   0   0
Cr               6.3299937252        8.2795252669       13.5984953017
Cr               4.2149984025        2.0754774019        9.7444374941    0   0   0
Cr               2.1623454562        2.0891873469       15.5744766455
Cr               6.2234466719        2.0877652695       15.5368367297
Cr               2.0054620409        2.1149661174       11.6192682974    0   0   0
Cr               6.3992485267        2.2488278238       11.6549867199    0   0   0
C                8.3671464633        0.0123762133        9.4921945368    0   0   0
C                8.3685510870        4.1683341954        9.4949958325    0   0   0
C                4.2233794382        0.0660683478        9.5137772640    0   0   0
C                4.2071394793        4.1170355077        9.4900603783    0   0   0
C                8.3740691699       -0.0061748898       13.7634553143
C                8.3622962092        4.1677748837       13.7481179559
C                4.2182743243        0.0133372500       13.6880366279
C                4.2156796160        4.1339253572       13.7113273286
C                2.1927697791        0.0693193261       15.9063915404
C                2.1149697016        4.1071795709       15.9002197490
C                6.2015092579        0.0709969508       15.8960736728
C                6.2773836895        4.1067665314       15.8561583788
C                2.1521326937        0.0175132539       11.5903255372    0   0   0
C                2.1078429860        4.1683083653       11.5671868517    0   0   0
C                6.2417937451        0.0188099573       11.6002801854    0   0   0
C                6.3283074126        4.1569384024       11.5682471185    0   0   0
C                8.3740046409        2.1397364316       15.9070019836
C                8.3786446665        6.2337107741       15.9631434875
C                4.2077651725        2.0473765066       15.7915071475
C                4.2080630027        6.3128391859       15.8811030467
C                0.0147673152        2.1438801594       11.5939557114    0   0   0
C                0.0200697416        6.2277703895       11.5821679336    0   0   0
C                4.2182428542        2.0594943016       11.6100232202    0   0   0
C                4.2117703951        6.2583221129       11.5919858628    0   0   0
C                2.1713130363        2.0860319016        9.4919958919    0   0   0
C                2.1164500536        6.2753611976        9.5156635851    0   0   0
C                6.2203151227        2.0809934926        9.4961719556    0   0   0
C                6.2861737462        6.2618311600        9.5257047400    0   0   0
C                2.1424552387        2.0634111335       13.7212059909
C                2.1084542532        6.2922216117       13.7619005671
C                6.2570845205        2.0758830057       13.6864889850
C                6.2979256534        6.2506141308       13.7337925478



     Writing config-only to output data dir ./tmp/hec3_CrTiV_f100_CO_clean.save/ :
     XML data file
     NEW-OLD atomic charge density approx. for the potential

     Check: negative core charge=   -0.000005

     negative rho (up, down):  3.490E-02 0.000E+00

     total cpu time spent up to now is     2478.4 secs

     Self-consistent Calculation

     iteration #  1     ecut=    60.00 Ry     beta= 0.30
     Davidson diagonalization with overlap
     ethr =  1.00E-06,  avg # of iterations =  7.0

     negative rho (up, down):  3.492E-02 0.000E+00

     total cpu time spent up to now is     2489.6 secs

     total energy              =   -5283.66270968 Ry
     estimated scf accuracy    <       0.01857048 Ry

     iteration #  2     ecut=    60.00 Ry     beta= 0.30
     Davidson diagonalization with overlap
     ethr =  3.41E-06,  avg # of iterations = 17.0

     negative rho (up, down):  3.495E-02 0.000E+00

     total cpu time spent up to now is     2505.2 secs

     total energy              =   -5283.58937823 Ry
     estimated scf accuracy    <       6.12804148 Ry

     iteration #  3     ecut=    60.00 Ry     beta= 0.30
     Davidson diagonalization with overlap
     c_bands:  1 eigenvalues not converged
     ethr =  3.41E-06,  avg # of iterations = 20.0

     negative rho (up, down):  3.490E-02 0.000E+00

     total cpu time spent up to now is     2521.4 secs

     total energy              =   -5283.66452492 Ry
     estimated scf accuracy    <       0.22151586 Ry

     iteration #  4     ecut=    60.00 Ry     beta= 0.30
     Davidson diagonalization with overlap
     ethr =  3.41E-06,  avg # of iterations = 10.0

     negative rho (up, down):  3.491E-02 0.000E+00

     total cpu time spent up to now is     2532.1 secs

     total energy              =   -5283.66960066 Ry
     estimated scf accuracy    <       0.01509096 Ry

     iteration #  5     ecut=    60.00 Ry     beta= 0.30
     Davidson diagonalization with overlap
     ethr =  2.77E-06,  avg # of iterations =  2.0

     negative rho (up, down):  3.491E-02 0.000E+00

     total cpu time spent up to now is     2539.5 secs

     total energy              =   -5283.67010831 Ry
     estimated scf accuracy    <       0.01099937 Ry

     iteration #  6     ecut=    60.00 Ry     beta= 0.30
     Davidson diagonalization with overlap
     ethr =  2.02E-06,  avg # of iterations =  2.0

     negative rho (up, down):  3.492E-02 0.000E+00

     total cpu time spent up to now is     2546.7 secs

     total energy              =   -5283.67031761 Ry
     estimated scf accuracy    <       0.01041916 Ry

     iteration #  7     ecut=    60.00 Ry     beta= 0.30
     Davidson diagonalization with overlap
     ethr =  1.92E-06,  avg # of iterations =  2.0

     negative rho (up, down):  3.492E-02 0.000E+00

     total cpu time spent up to now is     2553.9 secs

     total energy              =   -5283.67054552 Ry
     estimated scf accuracy    <       0.00273794 Ry

     iteration #  8     ecut=    60.00 Ry     beta= 0.30
     Davidson diagonalization with overlap
     ethr =  5.03E-07,  avg # of iterations =  2.0

     negative rho (up, down):  3.492E-02 0.000E+00

     total cpu time spent up to now is     2560.7 secs

     total energy              =   -5283.67060330 Ry
     estimated scf accuracy    <       0.00281723 Ry

     iteration #  9     ecut=    60.00 Ry     beta= 0.30
     Davidson diagonalization with overlap
     ethr =  5.03E-07,  avg # of iterations =  1.0

     negative rho (up, down):  3.492E-02 0.000E+00

     total cpu time spent up to now is     2567.2 secs

     total energy              =   -5283.67066687 Ry
     estimated scf accuracy    <       0.00095529 Ry

     iteration # 10     ecut=    60.00 Ry     beta= 0.30
     Davidson diagonalization with overlap
     ethr =  1.76E-07,  avg # of iterations =  2.0

     negative rho (up, down):  3.492E-02 0.000E+00

     total cpu time spent up to now is     2574.5 secs

     total energy              =   -5283.67069075 Ry
     estimated scf accuracy    <       0.00055599 Ry

     iteration # 11     ecut=    60.00 Ry     beta= 0.30
     Davidson diagonalization with overlap
     ethr =  1.02E-07,  avg # of iterations =  2.0

     negative rho (up, down):  3.492E-02 0.000E+00

     total cpu time spent up to now is     2583.3 secs

     total energy              =   -5283.67070012 Ry
     estimated scf accuracy    <       0.00035998 Ry

     iteration # 12     ecut=    60.00 Ry     beta= 0.30
     Davidson diagonalization with overlap
     ethr =  6.62E-08,  avg # of iterations =  2.0

     negative rho (up, down):  3.492E-02 0.000E+00

     total cpu time spent up to now is     2590.6 secs

     total energy              =   -5283.67065304 Ry
     estimated scf accuracy    <       0.00207170 Ry

     iteration # 13     ecut=    60.00 Ry     beta= 0.30
     Davidson diagonalization with overlap
     ethr =  6.62E-08,  avg # of iterations =  5.0

     negative rho (up, down):  3.492E-02 0.000E+00

     total cpu time spent up to now is     2598.9 secs

     total energy              =   -5283.67060473 Ry
     estimated scf accuracy    <       0.00777532 Ry

     iteration # 14     ecut=    60.00 Ry     beta= 0.30
     Davidson diagonalization with overlap
     ethr =  6.62E-08,  avg # of iterations =  5.0

     negative rho (up, down):  3.492E-02 0.000E+00

     total cpu time spent up to now is     2607.2 secs

     total energy              =   -5283.67071503 Ry
     estimated scf accuracy    <       0.00009992 Ry

     iteration # 15     ecut=    60.00 Ry     beta= 0.30
     Davidson diagonalization with overlap
     ethr =  1.84E-08,  avg # of iterations =  5.0

     negative rho (up, down):  3.492E-02 0.000E+00

     total cpu time spent up to now is     2615.8 secs

     total energy              =   -5283.67071616 Ry
     estimated scf accuracy    <       0.00021405 Ry

     iteration # 16     ecut=    60.00 Ry     beta= 0.30
     Davidson diagonalization with overlap
     ethr =  1.84E-08,  avg # of iterations =  2.0

     negative rho (up, down):  3.492E-02 0.000E+00

     total cpu time spent up to now is     2623.0 secs

     total energy              =   -5283.67071807 Ry
     estimated scf accuracy    <       0.00022564 Ry

     iteration # 17     ecut=    60.00 Ry     beta= 0.30
     Davidson diagonalization with overlap
     ethr =  1.84E-08,  avg # of iterations =  1.0

     negative rho (up, down):  3.492E-02 0.000E+00

     total cpu time spent up to now is     2629.6 secs

     total energy              =   -5283.67072256 Ry
     estimated scf accuracy    <       0.00005553 Ry

     iteration # 18     ecut=    60.00 Ry     beta= 0.30
     Davidson diagonalization with overlap
     ethr =  1.02E-08,  avg # of iterations =  1.0

     negative rho (up, down):  3.492E-02 0.000E+00

     total cpu time spent up to now is     2635.9 secs

     total energy              =   -5283.67072367 Ry
     estimated scf accuracy    <       0.00002260 Ry

     iteration # 19     ecut=    60.00 Ry     beta= 0.30
     Davidson diagonalization with overlap
     ethr =  4.15E-09,  avg # of iterations =  2.0

     negative rho (up, down):  3.492E-02 0.000E+00

     total cpu time spent up to now is     2643.0 secs

     total energy              =   -5283.67072383 Ry
     estimated scf accuracy    <       0.00002910 Ry

     iteration # 20     ecut=    60.00 Ry     beta= 0.30
     Davidson diagonalization with overlap
     ethr =  4.15E-09,  avg # of iterations =  1.0

     negative rho (up, down):  3.492E-02 0.000E+00

     total cpu time spent up to now is     2648.8 secs

     total energy              =   -5283.67072421 Ry
     estimated scf accuracy    <       0.00001688 Ry

     iteration # 21     ecut=    60.00 Ry     beta= 0.30
     Davidson diagonalization with overlap
     ethr =  3.10E-09,  avg # of iterations =  1.0

     negative rho (up, down):  3.492E-02 0.000E+00

     total cpu time spent up to now is     2654.9 secs

     total energy              =   -5283.67072463 Ry
     estimated scf accuracy    <       0.00001216 Ry

     iteration # 22     ecut=    60.00 Ry     beta= 0.30
     Davidson diagonalization with overlap
     ethr =  2.24E-09,  avg # of iterations =  1.0

     negative rho (up, down):  3.492E-02 0.000E+00

     total cpu time spent up to now is     2661.5 secs

     total energy              =   -5283.67072500 Ry
     estimated scf accuracy    <       0.00000273 Ry

     iteration # 23     ecut=    60.00 Ry     beta= 0.30
     Davidson diagonalization with overlap
     ethr =  5.03E-10,  avg # of iterations =  2.0

     negative rho (up, down):  3.492E-02 0.000E+00

     total cpu time spent up to now is     2668.9 secs

     total energy              =   -5283.67072485 Ry
     estimated scf accuracy    <       0.00000619 Ry

     iteration # 24     ecut=    60.00 Ry     beta= 0.30
     Davidson diagonalization with overlap
     ethr =  5.03E-10,  avg # of iterations =  2.0

     negative rho (up, down):  3.492E-02 0.000E+00

     total cpu time spent up to now is     2675.8 secs

     total energy              =   -5283.67072483 Ry
     estimated scf accuracy    <       0.00001964 Ry

     iteration # 25     ecut=    60.00 Ry     beta= 0.30
     Davidson diagonalization with overlap
     ethr =  5.03E-10,  avg # of iterations =  5.0

     negative rho (up, down):  3.492E-02 0.000E+00

     total cpu time spent up to now is     2684.0 secs

     total energy              =   -5283.67072488 Ry
     estimated scf accuracy    <       0.00000745 Ry

     iteration # 26     ecut=    60.00 Ry     beta= 0.30
     Davidson diagonalization with overlap
     ethr =  5.03E-10,  avg # of iterations =  2.0

     negative rho (up, down):  3.492E-02 0.000E+00

     total cpu time spent up to now is     2691.1 secs

     total energy              =   -5283.67072484 Ry
     estimated scf accuracy    <       0.00001304 Ry

     iteration # 27     ecut=    60.00 Ry     beta= 0.30
     Davidson diagonalization with overlap
     ethr =  5.03E-10,  avg # of iterations =  2.0

     negative rho (up, down):  3.492E-02 0.000E+00

     total cpu time spent up to now is     2698.1 secs

     total energy              =   -5283.67072499 Ry
     estimated scf accuracy    <       0.00000663 Ry

     iteration # 28     ecut=    60.00 Ry     beta= 0.30
     Davidson diagonalization with overlap
     ethr =  5.03E-10,  avg # of iterations =  1.0

     negative rho (up, down):  3.492E-02 0.000E+00

     total cpu time spent up to now is     2704.5 secs

     total energy              =   -5283.67072515 Ry
     estimated scf accuracy    <       0.00000131 Ry

     iteration # 29     ecut=    60.00 Ry     beta= 0.30
     Davidson diagonalization with overlap
     ethr =  2.41E-10,  avg # of iterations =  2.0

     negative rho (up, down):  3.492E-02 0.000E+00

     total cpu time spent up to now is     2711.6 secs

     total energy              =   -5283.67072516 Ry
     estimated scf accuracy    <       0.00000164 Ry

     iteration # 30     ecut=    60.00 Ry     beta= 0.30
     Davidson diagonalization with overlap
     ethr =  2.41E-10,  avg # of iterations =  1.0

     negative rho (up, down):  3.492E-02 0.000E+00

     total cpu time spent up to now is     2718.2 secs

     total energy              =   -5283.67072518 Ry
     estimated scf accuracy    <       0.00000111 Ry

     iteration # 31     ecut=    60.00 Ry     beta= 0.30
     Davidson diagonalization with overlap
     ethr =  2.05E-10,  avg # of iterations =  1.0

     negative rho (up, down):  3.492E-02 0.000E+00

     total cpu time spent up to now is     2725.3 secs

     total energy              =   -5283.67072519 Ry
     estimated scf accuracy    <       0.00000085 Ry

     iteration # 32     ecut=    60.00 Ry     beta= 0.30
     Davidson diagonalization with overlap
     ethr =  1.57E-10,  avg # of iterations =  1.0

     negative rho (up, down):  3.492E-02 0.000E+00

     total cpu time spent up to now is     2733.2 secs

     total energy              =   -5283.67072523 Ry
     estimated scf accuracy    <       0.00000021 Ry

     iteration # 33     ecut=    60.00 Ry     beta= 0.30
     Davidson diagonalization with overlap
     ethr =  3.91E-11,  avg # of iterations =  2.0

     negative rho (up, down):  3.492E-02 0.000E+00

     total cpu time spent up to now is     2740.7 secs

     total energy              =   -5283.67072522 Ry
     estimated scf accuracy    <       0.00000026 Ry

     iteration # 34     ecut=    60.00 Ry     beta= 0.30
     Davidson diagonalization with overlap
     ethr =  3.91E-11,  avg # of iterations =  2.0

     negative rho (up, down):  3.492E-02 0.000E+00

     total cpu time spent up to now is     2748.1 secs

     total energy              =   -5283.67072521 Ry
     estimated scf accuracy    <       0.00000172 Ry

     iteration # 35     ecut=    60.00 Ry     beta= 0.30
     Davidson diagonalization with overlap
     ethr =  3.91E-11,  avg # of iterations =  1.0

     negative rho (up, down):  3.492E-02 0.000E+00

     total cpu time spent up to now is     2755.2 secs

     total energy              =   -5283.67072523 Ry
     estimated scf accuracy    <       0.00000011 Ry

     iteration # 36     ecut=    60.00 Ry     beta= 0.30
     Davidson diagonalization with overlap
     ethr =  1.99E-11,  avg # of iterations =  2.0

     negative rho (up, down):  3.492E-02 0.000E+00

     total cpu time spent up to now is     2764.4 secs

     total energy              =   -5283.67072523 Ry
     estimated scf accuracy    <       0.00000051 Ry

     iteration # 37     ecut=    60.00 Ry     beta= 0.30
     Davidson diagonalization with overlap
     ethr =  1.99E-11,  avg # of iterations =  2.0

     negative rho (up, down):  3.492E-02 0.000E+00

     total cpu time spent up to now is     2772.7 secs

     total energy              =   -5283.67072523 Ry
     estimated scf accuracy    <       0.00000026 Ry

     iteration # 38     ecut=    60.00 Ry     beta= 0.30
     Davidson diagonalization with overlap
     ethr =  1.99E-11,  avg # of iterations =  2.0

     negative rho (up, down):  3.492E-02 0.000E+00

     total cpu time spent up to now is     2780.5 secs

     total energy              =   -5283.67072524 Ry
     estimated scf accuracy    <       0.00000008 Ry

     iteration # 39     ecut=    60.00 Ry     beta= 0.30
     Davidson diagonalization with overlap
     ethr =  1.38E-11,  avg # of iterations =  1.0

     negative rho (up, down):  3.492E-02 0.000E+00

     total cpu time spent up to now is     2787.7 secs

     total energy              =   -5283.67072524 Ry
     estimated scf accuracy    <       0.00000010 Ry

     iteration # 40     ecut=    60.00 Ry     beta= 0.30
     Davidson diagonalization with overlap
     ethr =  1.38E-11,  avg # of iterations =  2.0

     negative rho (up, down):  3.492E-02 0.000E+00

     total cpu time spent up to now is     2795.4 secs

     total energy              =   -5283.67072524 Ry
     estimated scf accuracy    <       0.00000012 Ry

     iteration # 41     ecut=    60.00 Ry     beta= 0.30
     Davidson diagonalization with overlap
     ethr =  1.38E-11,  avg # of iterations =  1.0

     negative rho (up, down):  3.492E-02 0.000E+00

     total cpu time spent up to now is     2802.1 secs

     total energy              =   -5283.67072524 Ry
     estimated scf accuracy    <       0.00000006 Ry

     iteration # 42     ecut=    60.00 Ry     beta= 0.30
     Davidson diagonalization with overlap
     ethr =  1.18E-11,  avg # of iterations =  1.0

     negative rho (up, down):  3.492E-02 0.000E+00

     total cpu time spent up to now is     2808.4 secs

     total energy              =   -5283.67072524 Ry
     estimated scf accuracy    <       0.00000005 Ry

     iteration # 43     ecut=    60.00 Ry     beta= 0.30
     Davidson diagonalization with overlap
     ethr =  8.66E-12,  avg # of iterations =  1.0

     negative rho (up, down):  3.492E-02 0.000E+00

     total cpu time spent up to now is     2814.6 secs

     total energy              =   -5283.67072524 Ry
     estimated scf accuracy    <       0.00000002 Ry

     iteration # 44     ecut=    60.00 Ry     beta= 0.30
     Davidson diagonalization with overlap
     ethr =  3.07E-12,  avg # of iterations =  2.0

     negative rho (up, down):  3.492E-02 0.000E+00

     total cpu time spent up to now is     2821.8 secs

     total energy              =   -5283.67072524 Ry
     estimated scf accuracy    <       0.00000010 Ry

     iteration # 45     ecut=    60.00 Ry     beta= 0.30
     Davidson diagonalization with overlap
     ethr =  3.07E-12,  avg # of iterations =  1.0

     negative rho (up, down):  3.492E-02 0.000E+00

     total cpu time spent up to now is     2828.3 secs

     total energy              =   -5283.67072524 Ry
     estimated scf accuracy    <       0.00000004 Ry

     iteration # 46     ecut=    60.00 Ry     beta= 0.30
     Davidson diagonalization with overlap
     ethr =  3.07E-12,  avg # of iterations =  1.0

     negative rho (up, down):  3.492E-02 0.000E+00

     total cpu time spent up to now is     2834.7 secs

     total energy              =   -5283.67072524 Ry
     estimated scf accuracy    <       0.00000002 Ry

     iteration # 47     ecut=    60.00 Ry     beta= 0.30
     Davidson diagonalization with overlap
     ethr =  3.07E-12,  avg # of iterations =  1.0

     negative rho (up, down):  3.492E-02 0.000E+00

     total cpu time spent up to now is     2841.2 secs

     total energy              =   -5283.67072524 Ry
     estimated scf accuracy    <       0.00000002 Ry

     iteration # 48     ecut=    60.00 Ry     beta= 0.30
     Davidson diagonalization with overlap
     ethr =  3.07E-12,  avg # of iterations =  1.0

     negative rho (up, down):  3.492E-02 0.000E+00

     total cpu time spent up to now is     2847.7 secs

     total energy              =   -5283.67072524 Ry
     estimated scf accuracy    <          6.4E-09 Ry

     iteration # 49     ecut=    60.00 Ry     beta= 0.30
     Davidson diagonalization with overlap
     ethr =  1.18E-12,  avg # of iterations =  1.0

     negative rho (up, down):  3.492E-02 0.000E+00

     total cpu time spent up to now is     2855.4 secs

     total energy              =   -5283.67072524 Ry
     estimated scf accuracy    <          5.7E-09 Ry

     iteration # 50     ecut=    60.00 Ry     beta= 0.30
     Davidson diagonalization with overlap
     ethr =  1.04E-12,  avg # of iterations =  1.0

     negative rho (up, down):  3.492E-02 0.000E+00

     total cpu time spent up to now is     2862.1 secs

     total energy              =   -5283.67072524 Ry
     estimated scf accuracy    <          5.8E-09 Ry

     iteration # 51     ecut=    60.00 Ry     beta= 0.30
     Davidson diagonalization with overlap
     ethr =  1.04E-12,  avg # of iterations =  1.0

     negative rho (up, down):  3.492E-02 0.000E+00

     total cpu time spent up to now is     2868.7 secs

     total energy              =   -5283.67072524 Ry
     estimated scf accuracy    <          3.7E-09 Ry

     iteration # 52     ecut=    60.00 Ry     beta= 0.30
     Davidson diagonalization with overlap
     ethr =  6.88E-13,  avg # of iterations =  2.0

     negative rho (up, down):  3.492E-02 0.000E+00

     total cpu time spent up to now is     2875.8 secs

     total energy              =   -5283.67072524 Ry
     estimated scf accuracy    <          5.3E-09 Ry

     iteration # 53     ecut=    60.00 Ry     beta= 0.30
     Davidson diagonalization with overlap
     ethr =  6.88E-13,  avg # of iterations =  1.0

     negative rho (up, down):  3.492E-02 0.000E+00

     total cpu time spent up to now is     2882.3 secs

     total energy              =   -5283.67072524 Ry
     estimated scf accuracy    <          1.9E-09 Ry

     iteration # 54     ecut=    60.00 Ry     beta= 0.30
     Davidson diagonalization with overlap
     ethr =  3.42E-13,  avg # of iterations =  1.0

     negative rho (up, down):  3.492E-02 0.000E+00

     total cpu time spent up to now is     2888.6 secs

     total energy              =   -5283.67072524 Ry
     estimated scf accuracy    <          3.4E-09 Ry

     iteration # 55     ecut=    60.00 Ry     beta= 0.30
     Davidson diagonalization with overlap
     ethr =  3.42E-13,  avg # of iterations =  2.0

     negative rho (up, down):  3.492E-02 0.000E+00

     total cpu time spent up to now is     2895.6 secs

     total energy              =   -5283.67072524 Ry
     estimated scf accuracy    <       0.00000001 Ry

     iteration # 56     ecut=    60.00 Ry     beta= 0.30
     Davidson diagonalization with overlap
     ethr =  3.42E-13,  avg # of iterations =  1.0

     negative rho (up, down):  3.492E-02 0.000E+00

     total cpu time spent up to now is     2902.2 secs

     End of self-consistent calculation

          k = 0.0000 0.0000 0.0000 ( 46961 PWs)   bands (ev):

   -69.6438 -69.6393 -69.5934 -69.5821 -69.5716 -69.5685 -69.5579 -69.5505
   -69.5073 -69.4927 -69.3290 -62.1392 -62.1330 -62.1171 -62.0925 -62.0863
   -62.0566 -62.0178 -62.0034 -61.9687 -61.8161 -54.4038 -54.3743 -54.2776
   -54.1263 -54.1122 -54.1080 -54.0936 -54.0739 -54.0682 -54.0308 -53.9201
   -41.0936 -41.0674 -41.0566 -41.0478 -41.0346 -41.0261 -41.0204 -40.9873
   -40.9778 -40.9715 -40.9633 -40.9495 -40.9468 -40.9402 -40.9181 -40.9126
   -40.9100 -40.9050 -40.8858 -40.8846 -40.8828 -40.8791 -40.8773 -40.8586
   -40.8456 -40.8440 -40.8372 -40.8172 -40.8079 -40.7894 -40.7711 -40.6859
   -40.5479 -36.1121 -36.0885 -36.0672 -36.0590 -36.0459 -36.0404 -36.0172
   -35.9980 -35.9899 -35.9842 -35.9789 -35.9581 -35.9486 -35.9434 -35.9290
   -35.9250 -35.9177 -35.9099 -35.8909 -35.8889 -35.8725 -35.8634 -35.8576
   -35.8559 -35.8411 -35.7796 -35.7359 -35.7037 -35.6585 -35.6513 -30.8375
   -30.7877 -30.6992 -30.6747 -30.6465 -30.6325 -30.6281 -30.6226 -30.5969
   -30.5775 -30.5579 -30.5400 -30.5336 -30.4959 -30.4904 -30.4844 -30.4797
   -30.4679 -30.4515 -30.4325 -30.4257 -30.4094 -30.3747 -30.3650 -30.3357
   -30.3184 -30.3045 -30.2874 -30.2654 -30.2462 -30.2301 -30.2111 -30.1803
   -10.8208  -9.7666  -9.3503  -9.2757  -9.1656  -9.0513  -8.6651  -8.4663
    -8.4238  -8.3899  -8.3672  -8.2578  -8.2301  -8.1400  -8.0714  -7.8884
    -7.8210  -7.7965  -7.6665  -7.6146  -7.5666  -7.5465  -7.5027  -7.4712
    -7.3650  -7.3395  -7.2358  -7.1688  -6.9943  -6.9501  -6.8022  -6.5164
    -4.0548  -4.0080  -3.9583  -3.8050  -3.0836  -2.9401  -2.7880  -2.7801
    -2.7326  -2.6912  -2.6559  -2.5727  -2.5201  -2.4567  -2.4476  -2.3217
    -2.1624  -2.1424  -2.0820  -1.9275  -1.9115  -1.8812  -1.8460  -1.7647
    -1.6928  -1.6257  -1.5851  -1.5304  -1.4717  -1.4663  -1.4494  -1.4426
    -1.4285  -1.4256  -1.4088  -1.3746  -1.3646  -1.3054  -1.2732  -1.2368
    -1.2259  -1.1959  -1.1367  -1.1033  -1.0710  -1.0541  -0.9980  -0.9631
    -0.9519  -0.9086  -0.8680  -0.8581  -0.8261  -0.7784  -0.7572  -0.7438
    -0.7215  -0.7143  -0.6773  -0.6473  -0.6145  -0.4651  -0.4529  -0.4317
    -0.4004  -0.3833  -0.3078  -0.2744  -0.2100  -0.2033  -0.1834  -0.0894
    -0.0789  -0.0378   0.0033   0.0371   0.0899   0.1669   0.3212   0.3600
     0.4290   0.5220   0.5391   0.6519   0.6637   0.7142   0.8028   0.9289
     0.9489   0.9546   1.1315   1.1570   1.2183   1.2420   1.2968   1.3547
     1.4765   1.6174   1.6289   1.7016   1.8217   1.8569   1.8851   2.1335
     2.5215   2.5880   2.6643   2.7142   2.7383   2.7917   2.8615   2.8684
     2.9225   2.9987   3.0223   3.0530   3.0659   3.1099   3.1546   3.1737
     3.1921   3.2416   3.2597   3.2680   3.2944   3.3289   3.3450   3.3691
     3.4123   3.4342   3.4526   3.4876   3.5113   3.5399   3.5697   3.6040
     3.6302   3.6990   3.7547   3.7880   3.8478   3.8784   3.8980   3.9293
     3.9507   4.0072   4.0135   4.0337   4.0601   4.0916   4.1178   4.1673
     4.1960   4.2429   4.2549   4.3507   4.3903   4.4188   4.4698   4.4971
     4.5284   4.5467   4.5573   4.6044   4.6165   4.7106

     the Fermi energy is     2.9150 ev

!    total energy              =   -5283.67072524 Ry
     estimated scf accuracy    <          1.0E-09 Ry
     smearing contrib. (-TS)   =      -0.03801279 Ry
     internal energy E=F+TS    =   -5283.63271245 Ry

     The total energy is F=E-TS. E is the sum of the following terms:
     one-electron contribution =  -56081.64482310 Ry
     hartree contribution      =   28064.30049504 Ry
     xc contribution           =    -787.56679205 Ry
     ewald contribution        =   23718.87761768 Ry
     one-center paw contrib.   =    -197.59921001 Ry

     convergence has been achieved in  56 iterations

     negative rho (up, down):  3.492E-02 0.000E+00

     Forces acting on atoms (cartesian axes, Ry/au):

     atom    1 type  1   force =     0.00027665   -0.00291670    0.00239930
     atom    2 type  1   force =    -0.00997789   -0.00552396    0.00250217
     atom    3 type  1   force =    -0.00006263   -0.00049444   -0.00005672
     atom    4 type  1   force =    -0.00026645   -0.01693920    0.03117737
     atom    5 type  1   force =    -0.00454531    0.01233770    0.00230689
     atom    6 type  1   force =     0.00872973   -0.00349119    0.02695413
     atom    7 type  1   force =    -0.00040047    0.00070372    0.00580779
     atom    8 type  1   force =     0.00057013    0.00027880    0.00708466
     atom    9 type  1   force =    -0.00000857    0.00032519    0.00333303
     atom   10 type  1   force =    -0.00151191   -0.00343468    0.00172655
     atom   11 type  1   force =     0.00186075   -0.00608965    0.00262879
     atom   12 type  2   force =     0.00055624   -0.00419252   -0.00030833
     atom   13 type  2   force =     0.00004219   -0.00701414   -0.00038904
     atom   14 type  2   force =     0.02306500   -0.00384005    0.00747887
     atom   15 type  2   force =    -0.01079880    0.00101196    0.11472245
     atom   16 type  2   force =     0.00689332   -0.00088330    0.09515863
     atom   17 type  2   force =     0.00124507    0.00192212   -0.00042711
     atom   18 type  2   force =     0.00059053   -0.00137928   -0.00307359
     atom   19 type  2   force =     0.00142926   -0.00179509    0.01044968
     atom   20 type  2   force =     0.00258376   -0.00975001   -0.01005671
     atom   21 type  2   force =     0.00361447    0.02251909   -0.01529959
     atom   22 type  3   force =     0.00184120   -0.01704960    0.00158870
     atom   23 type  3   force =    -0.02390784   -0.01078248    0.00693381
     atom   24 type  3   force =     0.03013144    0.01464501   -0.01537186
     atom   25 type  3   force =     0.01510579   -0.01404947    0.07137095
     atom   26 type  3   force =    -0.00387410    0.01068435    0.12469517
     atom   27 type  3   force =    -0.00067282   -0.00037481   -0.00043983
     atom   28 type  3   force =    -0.00811269    0.00026928    0.03338390
     atom   29 type  3   force =    -0.00078295   -0.00300999    0.00097983
     atom   30 type  3   force =    -0.00130101   -0.00253212    0.00190785
     atom   31 type  3   force =     0.00619439   -0.00287174   -0.01458036
     atom   32 type  3   force =    -0.01122940   -0.00196731   -0.01037388
     atom   33 type  4   force =     0.00174137   -0.00689643   -0.03411674
     atom   34 type  4   force =     0.00996349    0.01277470   -0.00529210
     atom   35 type  4   force =    -0.00322099   -0.01698051   -0.02084311
     atom   36 type  4   force =     0.00011845    0.01128763   -0.03411006
     atom   37 type  4   force =    -0.00004729   -0.00053661   -0.00060635
     atom   38 type  4   force =     0.00015086    0.00066018   -0.00178940
     atom   39 type  4   force =    -0.00045233   -0.00460083    0.00000608
     atom   40 type  4   force =     0.00026151    0.00001969    0.00144523
     atom   41 type  4   force =     0.00143709    0.00544914   -0.00147910
     atom   42 type  4   force =     0.00160520    0.00629397   -0.00098583
     atom   43 type  4   force =    -0.00131313    0.00540850   -0.00186128
     atom   44 type  4   force =    -0.00045761    0.00653474   -0.00094621
     atom   45 type  4   force =     0.00221541    0.00800370   -0.03987699
     atom   46 type  4   force =     0.00429221    0.00195600   -0.04804701
     atom   47 type  4   force =    -0.00943965   -0.00062533   -0.02466341
     atom   48 type  4   force =    -0.01591203   -0.00846988   -0.02527591
     atom   49 type  4   force =     0.00077631    0.00250091    0.00467774
     atom   50 type  4   force =     0.00115609    0.00739726    0.00796375
     atom   51 type  4   force =    -0.00069744    0.00632822   -0.00105749
     atom   52 type  4   force =    -0.00069770    0.01099536    0.00451593
     atom   53 type  4   force =    -0.00147578   -0.00523874   -0.03554130
     atom   54 type  4   force =    -0.00549017    0.00916226   -0.03777401
     atom   55 type  4   force =    -0.00010567    0.00677193   -0.04082966
     atom   56 type  4   force =    -0.00131411   -0.00550519   -0.03586262
     atom   57 type  4   force =    -0.01592025    0.00871139   -0.02556150
     atom   58 type  4   force =    -0.00907768   -0.00678522   -0.03187323
     atom   59 type  4   force =     0.01431534    0.01339841   -0.03135036
     atom   60 type  4   force =     0.00216890   -0.01132818   -0.01731841
     atom   61 type  4   force =    -0.00203547   -0.00067449    0.00105121
     atom   62 type  4   force =    -0.00098717    0.00028897   -0.00465945
     atom   63 type  4   force =     0.00018568   -0.00064862    0.00110292
     atom   64 type  4   force =     0.00097940    0.00003161   -0.00325482

     Total force =     0.035363     Total SCF correction =     0.000066
     Energy error            =      1.5E-03 Ry
     Gradient error          =      1.7E-02 Ry/Bohr

     number of scf cycles    =   7
     number of bfgs steps    =   6

     energy             old  =   -5283.6692460237 Ry
     energy             new  =   -5283.6707252396 Ry

     CASE: energy            _new < energy            _old

     new trust radius        =       0.0724507103 bohr
     new conv_thr            =       0.0000000017 Ry


ATOMIC_POSITIONS (angstrom)
Ti               8.3737715162        0.0258880414       15.7747448936
Ti               0.0291331002        8.3621570543       11.5803477355    0   0   0
Ti               2.0907210271        4.2078945007       13.6815574832
Ti               8.3795041056        2.0957563981        9.4724378689    0   0   0
Ti               8.3750099733        6.2687152092        9.4933225157    0   0   0
Ti               4.2170671874        6.2898439467        9.4911460380    0   0   0
Ti               8.3727023447        2.0970588312       13.6371376722
Ti               8.3826369803        6.2645931018       13.6246997760
Ti               4.2027639120        6.2622022171       13.6334942850
Ti               2.1082574604        6.2559708631       15.7880447910
Ti               6.2997046188        6.2626149133       15.7805864506
V                8.3969459655        4.1274855623       15.6649107513
V                4.1955983477        4.1172123757       15.6533325138
V                4.1453105473        4.2119457891       11.5975026988    0   0   0
V                2.1879867013        0.0520231596        9.5054883674    0   0   0
V                2.1522427348        4.1319303501        9.4904675789    0   0   0
V                2.0772184271        8.3418925644       13.6521929165
V                6.3018642910        4.2317681094       13.7436004169
V                4.1814380248        2.1083080950       13.5451496110
V                2.1048639148        6.2714192178       11.5723879270    0   0   0
V                6.3158808164        6.1438819511       11.5700667150    0   0   0
Cr               4.2005617952       -0.0800682033       15.5360461991
Cr               0.1179128009        4.1786640750       11.5195623927    0   0   0
Cr               4.1681598842        8.2577799257       11.6615352591    0   0   0
Cr               6.1999882077        0.1106418811        9.6948923906    0   0   0
Cr               6.2007452456        4.0563627707        9.3394942948    0   0   0
Cr               6.3332460172        8.2725929383       13.5978398410
Cr               4.2149984025        2.0754774019        9.7444374941    0   0   0
Cr               2.1586043555        2.0912594052       15.5796280287
Cr               6.2244370418        2.0917397055       15.5383681875
Cr               2.0054620409        2.1149661174       11.6192682974    0   0   0
Cr               6.3992485267        2.2488278238       11.6549867199    0   0   0
C                8.3671464633        0.0123762133        9.4921945368    0   0   0
C                8.3685510870        4.1683341954        9.4949958325    0   0   0
C                4.2233794382        0.0660683478        9.5137772640    0   0   0
C                4.2071394793        4.1170355077        9.4900603783    0   0   0
C                8.3728629826       -0.0064264365       13.7592969704
C                8.3620999949        4.1689202536       13.7429431309
C                4.2197626181        0.0082993336       13.6815297226
C                4.2157893058        4.1329284398       13.7118710835
C                2.1977417376        0.0761841676       15.9133836565
C                2.1170589726        4.1129220741       15.9016560166
C                6.1960333710        0.0770003088       15.9034850890
C                6.2770885161        4.1108459006       15.8568467640
C                2.1521326937        0.0175132539       11.5903255372    0   0   0
C                2.1078429860        4.1683083653       11.5671868517    0   0   0
C                6.2417937451        0.0188099573       11.6002801854    0   0   0
C                6.3283074126        4.1569384024       11.5682471185    0   0   0
C                8.3741833090        2.1453174859       15.9210129901
C                8.3797860443        6.2392869504       15.9747379135
C                4.2090530870        2.0470218732       15.7918893068
C                4.2084146412        6.3298013717       15.8851210240
C                0.0147673152        2.1438801594       11.5939557114    0   0   0
C                0.0200697416        6.2277703895       11.5821679336    0   0   0
C                4.2182428542        2.0594943016       11.6100232202    0   0   0
C                4.2117703951        6.2583221129       11.5919858628    0   0   0
C                2.1713130363        2.0860319016        9.4919958919    0   0   0
C                2.1164500536        6.2753611976        9.5156635851    0   0   0
C                6.2203151227        2.0809934926        9.4961719556    0   0   0
C                6.2861737462        6.2618311600        9.5257047400    0   0   0
C                2.1426787990        2.0644707486       13.7233876815
C                2.1074235327        6.2934064124       13.7586480401
C                6.2559451421        2.0761805848       13.6853195579
C                6.2993093677        6.2494642989       13.7316546333



     Writing config-only to output data dir ./tmp/hec3_CrTiV_f100_CO_clean.save/ :
     XML data file
     NEW-OLD atomic charge density approx. for the potential

     Check: negative core charge=   -0.000005

     negative rho (up, down):  3.486E-02 0.000E+00

     total cpu time spent up to now is     2912.6 secs

     Self-consistent Calculation

     iteration #  1     ecut=    60.00 Ry     beta= 0.30
     Davidson diagonalization with overlap
     ethr =  1.00E-06,  avg # of iterations =  7.0

     negative rho (up, down):  3.489E-02 0.000E+00

     total cpu time spent up to now is     2924.2 secs

     total energy              =   -5283.66052360 Ry
     estimated scf accuracy    <       0.03019235 Ry

     iteration #  2     ecut=    60.00 Ry     beta= 0.30
     Davidson diagonalization with overlap
     ethr =  5.55E-06,  avg # of iterations = 16.0

     negative rho (up, down):  3.493E-02 0.000E+00

     total cpu time spent up to now is     2939.6 secs

     total energy              =   -5283.57421793 Ry
     estimated scf accuracy    <       6.22986242 Ry

     iteration #  3     ecut=    60.00 Ry     beta= 0.30
     Davidson diagonalization with overlap
     c_bands:  2 eigenvalues not converged
     ethr =  5.55E-06,  avg # of iterations = 20.0

     negative rho (up, down):  3.484E-02 0.000E+00

     total cpu time spent up to now is     2956.5 secs

     total energy              =   -5283.65720452 Ry
     estimated scf accuracy    <       0.71392150 Ry

     iteration #  4     ecut=    60.00 Ry     beta= 0.30
     Davidson diagonalization with overlap
     ethr =  5.55E-06,  avg # of iterations = 17.0

     negative rho (up, down):  3.487E-02 0.000E+00

     total cpu time spent up to now is     2969.9 secs

     total energy              =   -5283.67041598 Ry
     estimated scf accuracy    <       0.04293299 Ry

     iteration #  5     ecut=    60.00 Ry     beta= 0.30
     Davidson diagonalization with overlap
     ethr =  5.55E-06,  avg # of iterations =  2.0

     negative rho (up, down):  3.486E-02 0.000E+00

     total cpu time spent up to now is     2976.9 secs

     total energy              =   -5283.67148611 Ry
     estimated scf accuracy    <       0.02921336 Ry

     iteration #  6     ecut=    60.00 Ry     beta= 0.30
     Davidson diagonalization with overlap
     ethr =  5.37E-06,  avg # of iterations =  2.0

     negative rho (up, down):  3.488E-02 0.000E+00

     total cpu time spent up to now is     2984.3 secs

     total energy              =   -5283.67204620 Ry
     estimated scf accuracy    <       0.01863333 Ry

     iteration #  7     ecut=    60.00 Ry     beta= 0.30
     Davidson diagonalization with overlap
     ethr =  3.43E-06,  avg # of iterations =  2.0

     negative rho (up, down):  3.488E-02 0.000E+00

     total cpu time spent up to now is     2991.4 secs

     total energy              =   -5283.67246211 Ry
     estimated scf accuracy    <       0.00553040 Ry

     iteration #  8     ecut=    60.00 Ry     beta= 0.30
     Davidson diagonalization with overlap
     ethr =  1.02E-06,  avg # of iterations =  2.0

     negative rho (up, down):  3.489E-02 0.000E+00

     total cpu time spent up to now is     2998.6 secs

     total energy              =   -5283.67257322 Ry
     estimated scf accuracy    <       0.00593451 Ry

     iteration #  9     ecut=    60.00 Ry     beta= 0.30
     Davidson diagonalization with overlap
     ethr =  1.02E-06,  avg # of iterations =  1.0

     negative rho (up, down):  3.488E-02 0.000E+00

     total cpu time spent up to now is     3005.3 secs

     total energy              =   -5283.67269845 Ry
     estimated scf accuracy    <       0.00211511 Ry

     iteration # 10     ecut=    60.00 Ry     beta= 0.30
     Davidson diagonalization with overlap
     ethr =  3.89E-07,  avg # of iterations =  2.0

     negative rho (up, down):  3.489E-02 0.000E+00

     total cpu time spent up to now is     3012.4 secs

     total energy              =   -5283.67274883 Ry
     estimated scf accuracy    <       0.00132006 Ry

     iteration # 11     ecut=    60.00 Ry     beta= 0.30
     Davidson diagonalization with overlap
     ethr =  2.43E-07,  avg # of iterations =  2.0

     negative rho (up, down):  3.489E-02 0.000E+00

     total cpu time spent up to now is     3019.4 secs

     total energy              =   -5283.67278059 Ry
     estimated scf accuracy    <       0.00073075 Ry

     iteration # 12     ecut=    60.00 Ry     beta= 0.30
     Davidson diagonalization with overlap
     ethr =  1.34E-07,  avg # of iterations =  2.0

     negative rho (up, down):  3.489E-02 0.000E+00

     total cpu time spent up to now is     3026.7 secs

     total energy              =   -5283.67274913 Ry
     estimated scf accuracy    <       0.00179978 Ry

     iteration # 13     ecut=    60.00 Ry     beta= 0.30
     Davidson diagonalization with overlap
     ethr =  1.34E-07,  avg # of iterations =  2.0

     negative rho (up, down):  3.489E-02 0.000E+00

     total cpu time spent up to now is     3033.8 secs

     total energy              =   -5283.67269795 Ry
     estimated scf accuracy    <       0.00897504 Ry

     iteration # 14     ecut=    60.00 Ry     beta= 0.30
     Davidson diagonalization with overlap
     ethr =  1.34E-07,  avg # of iterations =  1.0

     negative rho (up, down):  3.489E-02 0.000E+00

     total cpu time spent up to now is     3040.3 secs

     total energy              =   -5283.67281684 Ry
     estimated scf accuracy    <       0.00022076 Ry

     iteration # 15     ecut=    60.00 Ry     beta= 0.30
     Davidson diagonalization with overlap
     ethr =  4.06E-08,  avg # of iterations =  2.0

     negative rho (up, down):  3.489E-02 0.000E+00

     total cpu time spent up to now is     3047.5 secs

     total energy              =   -5283.67282173 Ry
     estimated scf accuracy    <       0.00008023 Ry

     iteration # 16     ecut=    60.00 Ry     beta= 0.30
     Davidson diagonalization with overlap
     ethr =  1.47E-08,  avg # of iterations =  6.0

     negative rho (up, down):  3.489E-02 0.000E+00

     total cpu time spent up to now is     3056.3 secs

     total energy              =   -5283.67281405 Ry
     estimated scf accuracy    <       0.00066531 Ry

     iteration # 17     ecut=    60.00 Ry     beta= 0.30
     Davidson diagonalization with overlap
     ethr =  1.47E-08,  avg # of iterations =  5.0

     negative rho (up, down):  3.489E-02 0.000E+00

     total cpu time spent up to now is     3064.6 secs

     total energy              =   -5283.67282549 Ry
     estimated scf accuracy    <       0.00008813 Ry

     iteration # 18     ecut=    60.00 Ry     beta= 0.30
     Davidson diagonalization with overlap
     ethr =  1.47E-08,  avg # of iterations =  2.0

     negative rho (up, down):  3.489E-02 0.000E+00

     total cpu time spent up to now is     3071.7 secs

     total energy              =   -5283.67282758 Ry
     estimated scf accuracy    <       0.00005283 Ry

     iteration # 19     ecut=    60.00 Ry     beta= 0.30
     Davidson diagonalization with overlap
     ethr =  9.71E-09,  avg # of iterations =  2.0

     negative rho (up, down):  3.490E-02 0.000E+00

     total cpu time spent up to now is     3078.9 secs

     total energy              =   -5283.67282867 Ry
     estimated scf accuracy    <       0.00002484 Ry

     iteration # 20     ecut=    60.00 Ry     beta= 0.30
     Davidson diagonalization with overlap
     ethr =  4.57E-09,  avg # of iterations =  2.0

     negative rho (up, down):  3.490E-02 0.000E+00

     total cpu time spent up to now is     3086.1 secs

     total energy              =   -5283.67282860 Ry
     estimated scf accuracy    <       0.00003226 Ry

     iteration # 21     ecut=    60.00 Ry     beta= 0.30
     Davidson diagonalization with overlap
     ethr =  4.57E-09,  avg # of iterations =  2.0

     negative rho (up, down):  3.490E-02 0.000E+00

     total cpu time spent up to now is     3093.7 secs

     total energy              =   -5283.67282927 Ry
     estimated scf accuracy    <       0.00002786 Ry

     iteration # 22     ecut=    60.00 Ry     beta= 0.30
     Davidson diagonalization with overlap
     ethr =  4.57E-09,  avg # of iterations =  1.0

     negative rho (up, down):  3.490E-02 0.000E+00

     total cpu time spent up to now is     3100.1 secs

     total energy              =   -5283.67283009 Ry
     estimated scf accuracy    <       0.00000714 Ry

     iteration # 23     ecut=    60.00 Ry     beta= 0.30
     Davidson diagonalization with overlap
     ethr =  1.31E-09,  avg # of iterations =  2.0

     negative rho (up, down):  3.490E-02 0.000E+00

     total cpu time spent up to now is     3107.4 secs

     total energy              =   -5283.67282987 Ry
     estimated scf accuracy    <       0.00001531 Ry

     iteration # 24     ecut=    60.00 Ry     beta= 0.30
     Davidson diagonalization with overlap
     ethr =  1.31E-09,  avg # of iterations =  3.0

     negative rho (up, down):  3.489E-02 0.000E+00

     total cpu time spent up to now is     3117.1 secs

     total energy              =   -5283.67282894 Ry
     estimated scf accuracy    <       0.00008006 Ry

     iteration # 25     ecut=    60.00 Ry     beta= 0.30
     Davidson diagonalization with overlap
     ethr =  1.31E-09,  avg # of iterations =  2.0

     negative rho (up, down):  3.490E-02 0.000E+00

     total cpu time spent up to now is     3124.5 secs

     total energy              =   -5283.67283019 Ry
     estimated scf accuracy    <       0.00000725 Ry

     iteration # 26     ecut=    60.00 Ry     beta= 0.30
     Davidson diagonalization with overlap
     ethr =  1.31E-09,  avg # of iterations =  1.0

     negative rho (up, down):  3.490E-02 0.000E+00

     total cpu time spent up to now is     3130.9 secs

     total energy              =   -5283.67283017 Ry
     estimated scf accuracy    <       0.00001153 Ry

     iteration # 27     ecut=    60.00 Ry     beta= 0.30
     Davidson diagonalization with overlap
     ethr =  1.31E-09,  avg # of iterations =  1.0

     negative rho (up, down):  3.490E-02 0.000E+00

     total cpu time spent up to now is     3137.3 secs

     total energy              =   -5283.67283033 Ry
     estimated scf accuracy    <       0.00000624 Ry

     iteration # 28     ecut=    60.00 Ry     beta= 0.30
     Davidson diagonalization with overlap
     ethr =  1.15E-09,  avg # of iterations =  1.0

     negative rho (up, down):  3.490E-02 0.000E+00

     total cpu time spent up to now is     3144.1 secs

     total energy              =   -5283.67283045 Ry
     estimated scf accuracy    <       0.00000274 Ry

     iteration # 29     ecut=    60.00 Ry     beta= 0.30
     Davidson diagonalization with overlap
     ethr =  5.03E-10,  avg # of iterations =  1.0

     negative rho (up, down):  3.490E-02 0.000E+00

     total cpu time spent up to now is     3150.7 secs

     total energy              =   -5283.67283049 Ry
     estimated scf accuracy    <       0.00000178 Ry

     iteration # 30     ecut=    60.00 Ry     beta= 0.30
     Davidson diagonalization with overlap
     ethr =  3.27E-10,  avg # of iterations =  1.0

     negative rho (up, down):  3.490E-02 0.000E+00

     total cpu time spent up to now is     3157.4 secs

     total energy              =   -5283.67283052 Ry
     estimated scf accuracy    <       0.00000182 Ry

     iteration # 31     ecut=    60.00 Ry     beta= 0.30
     Davidson diagonalization with overlap
     ethr =  3.27E-10,  avg # of iterations =  1.0

     negative rho (up, down):  3.490E-02 0.000E+00

     total cpu time spent up to now is     3164.1 secs

     total energy              =   -5283.67283053 Ry
     estimated scf accuracy    <       0.00000177 Ry

     iteration # 32     ecut=    60.00 Ry     beta= 0.30
     Davidson diagonalization with overlap
     ethr =  3.26E-10,  avg # of iterations =  1.0

     negative rho (up, down):  3.490E-02 0.000E+00

     total cpu time spent up to now is     3170.6 secs

     total energy              =   -5283.67283059 Ry
     estimated scf accuracy    <       0.00000039 Ry

     iteration # 33     ecut=    60.00 Ry     beta= 0.30
     Davidson diagonalization with overlap
     ethr =  7.12E-11,  avg # of iterations =  1.0

     negative rho (up, down):  3.490E-02 0.000E+00

     total cpu time spent up to now is     3177.2 secs

     total energy              =   -5283.67283059 Ry
     estimated scf accuracy    <       0.00000059 Ry

     iteration # 34     ecut=    60.00 Ry     beta= 0.30
     Davidson diagonalization with overlap
     ethr =  7.12E-11,  avg # of iterations =  1.0

     negative rho (up, down):  3.490E-02 0.000E+00

     total cpu time spent up to now is     3183.9 secs

     total energy              =   -5283.67283059 Ry
     estimated scf accuracy    <       0.00000040 Ry

     iteration # 35     ecut=    60.00 Ry     beta= 0.30
     Davidson diagonalization with overlap
     ethr =  7.12E-11,  avg # of iterations =  2.0

     negative rho (up, down):  3.490E-02 0.000E+00

     total cpu time spent up to now is     3191.1 secs

     total energy              =   -5283.67283059 Ry
     estimated scf accuracy    <       0.00000068 Ry

     iteration # 36     ecut=    60.00 Ry     beta= 0.30
     Davidson diagonalization with overlap
     ethr =  7.12E-11,  avg # of iterations =  1.0

     negative rho (up, down):  3.490E-02 0.000E+00

     total cpu time spent up to now is     3197.6 secs

     total energy              =   -5283.67283060 Ry
     estimated scf accuracy    <       0.00000053 Ry

     iteration # 37     ecut=    60.00 Ry     beta= 0.30
     Davidson diagonalization with overlap
     ethr =  7.12E-11,  avg # of iterations =  1.0

     negative rho (up, down):  3.490E-02 0.000E+00

     total cpu time spent up to now is     3204.2 secs

     total energy              =   -5283.67283060 Ry
     estimated scf accuracy    <       0.00000052 Ry

     iteration # 38     ecut=    60.00 Ry     beta= 0.30
     Davidson diagonalization with overlap
     ethr =  7.12E-11,  avg # of iterations =  1.0

     negative rho (up, down):  3.490E-02 0.000E+00

     total cpu time spent up to now is     3210.7 secs

     total energy              =   -5283.67283061 Ry
     estimated scf accuracy    <       0.00000016 Ry

     iteration # 39     ecut=    60.00 Ry     beta= 0.30
     Davidson diagonalization with overlap
     ethr =  2.87E-11,  avg # of iterations =  1.0

     negative rho (up, down):  3.490E-02 0.000E+00

     total cpu time spent up to now is     3217.0 secs

     total energy              =   -5283.67283061 Ry
     estimated scf accuracy    <       0.00000016 Ry

     iteration # 40     ecut=    60.00 Ry     beta= 0.30
     Davidson diagonalization with overlap
     ethr =  2.87E-11,  avg # of iterations =  1.0

     negative rho (up, down):  3.490E-02 0.000E+00

     total cpu time spent up to now is     3223.8 secs

     total energy              =   -5283.67283061 Ry
     estimated scf accuracy    <       0.00000019 Ry

     iteration # 41     ecut=    60.00 Ry     beta= 0.30
     Davidson diagonalization with overlap
     ethr =  2.87E-11,  avg # of iterations =  1.0

     negative rho (up, down):  3.490E-02 0.000E+00

     total cpu time spent up to now is     3230.4 secs

     total energy              =   -5283.67283061 Ry
     estimated scf accuracy    <       0.00000010 Ry

     iteration # 42     ecut=    60.00 Ry     beta= 0.30
     Davidson diagonalization with overlap
     ethr =  1.78E-11,  avg # of iterations =  1.0

     negative rho (up, down):  3.490E-02 0.000E+00

     total cpu time spent up to now is     3237.2 secs

     total energy              =   -5283.67283061 Ry
     estimated scf accuracy    <       0.00000010 Ry

     iteration # 43     ecut=    60.00 Ry     beta= 0.30
     Davidson diagonalization with overlap
     ethr =  1.76E-11,  avg # of iterations =  1.0

     negative rho (up, down):  3.490E-02 0.000E+00

     total cpu time spent up to now is     3243.6 secs

     total energy              =   -5283.67283061 Ry
     estimated scf accuracy    <       0.00000010 Ry

     iteration # 44     ecut=    60.00 Ry     beta= 0.30
     Davidson diagonalization with overlap
     ethr =  1.76E-11,  avg # of iterations =  1.0

     negative rho (up, down):  3.490E-02 0.000E+00

     total cpu time spent up to now is     3250.2 secs

     total energy              =   -5283.67283061 Ry
     estimated scf accuracy    <       0.00000002 Ry

     iteration # 45     ecut=    60.00 Ry     beta= 0.30
     Davidson diagonalization with overlap
     ethr =  3.24E-12,  avg # of iterations =  2.0

     negative rho (up, down):  3.490E-02 0.000E+00

     total cpu time spent up to now is     3259.3 secs

     total energy              =   -5283.67283061 Ry
     estimated scf accuracy    <       0.00000004 Ry

     iteration # 46     ecut=    60.00 Ry     beta= 0.30
     Davidson diagonalization with overlap
     ethr =  3.24E-12,  avg # of iterations =  2.0

     negative rho (up, down):  3.490E-02 0.000E+00

     total cpu time spent up to now is     3266.4 secs

     total energy              =   -5283.67283061 Ry
     estimated scf accuracy    <       0.00000005 Ry

     iteration # 47     ecut=    60.00 Ry     beta= 0.30
     Davidson diagonalization with overlap
     ethr =  3.24E-12,  avg # of iterations =  2.0

     negative rho (up, down):  3.490E-02 0.000E+00

     total cpu time spent up to now is     3273.3 secs

     total energy              =   -5283.67283061 Ry
     estimated scf accuracy    <       0.00000004 Ry

     iteration # 48     ecut=    60.00 Ry     beta= 0.30
     Davidson diagonalization with overlap
     ethr =  3.24E-12,  avg # of iterations =  1.0

     negative rho (up, down):  3.490E-02 0.000E+00

     total cpu time spent up to now is     3279.8 secs

     total energy              =   -5283.67283062 Ry
     estimated scf accuracy    <       0.00000001 Ry

     iteration # 49     ecut=    60.00 Ry     beta= 0.30
     Davidson diagonalization with overlap
     ethr =  2.62E-12,  avg # of iterations =  1.0

     negative rho (up, down):  3.490E-02 0.000E+00

     total cpu time spent up to now is     3286.6 secs

     total energy              =   -5283.67283062 Ry
     estimated scf accuracy    <          9.9E-09 Ry

     iteration # 50     ecut=    60.00 Ry     beta= 0.30
     Davidson diagonalization with overlap
     ethr =  1.82E-12,  avg # of iterations =  1.0

     negative rho (up, down):  3.490E-02 0.000E+00

     total cpu time spent up to now is     3293.0 secs

     total energy              =   -5283.67283061 Ry
     estimated scf accuracy    <       0.00000001 Ry

     iteration # 51     ecut=    60.00 Ry     beta= 0.30
     Davidson diagonalization with overlap
     ethr =  1.82E-12,  avg # of iterations =  1.0

     negative rho (up, down):  3.490E-02 0.000E+00

     total cpu time spent up to now is     3299.5 secs

     total energy              =   -5283.67283061 Ry
     estimated scf accuracy    <          4.7E-09 Ry

     iteration # 52     ecut=    60.00 Ry     beta= 0.30
     Davidson diagonalization with overlap
     ethr =  8.71E-13,  avg # of iterations =  2.0

     negative rho (up, down):  3.490E-02 0.000E+00

     total cpu time spent up to now is     3306.8 secs

     total energy              =   -5283.67283061 Ry
     estimated scf accuracy    <       0.00000002 Ry

     iteration # 53     ecut=    60.00 Ry     beta= 0.30
     Davidson diagonalization with overlap
     ethr =  8.71E-13,  avg # of iterations =  1.0

     negative rho (up, down):  3.490E-02 0.000E+00

     total cpu time spent up to now is     3313.3 secs

     total energy              =   -5283.67283061 Ry
     estimated scf accuracy    <       0.00000002 Ry

     iteration # 54     ecut=    60.00 Ry     beta= 0.30
     Davidson diagonalization with overlap
     ethr =  8.71E-13,  avg # of iterations =  1.0

     negative rho (up, down):  3.490E-02 0.000E+00

     total cpu time spent up to now is     3319.8 secs

     End of self-consistent calculation

          k = 0.0000 0.0000 0.0000 ( 46961 PWs)   bands (ev):

   -69.6550 -69.6246 -69.5888 -69.5791 -69.5789 -69.5770 -69.5670 -69.5567
   -69.5139 -69.4559 -69.3354 -62.1481 -62.1413 -62.1273 -62.0949 -62.0905
   -62.0377 -62.0230 -62.0101 -61.9689 -61.8056 -54.4131 -54.3838 -54.2850
   -54.1247 -54.1168 -54.1065 -54.0928 -54.0824 -54.0730 -54.0355 -53.9284
   -41.0797 -41.0736 -41.0595 -41.0577 -41.0382 -41.0331 -41.0281 -40.9830
   -40.9770 -40.9708 -40.9679 -40.9558 -40.9537 -40.9393 -40.9242 -40.9179
   -40.9000 -40.8926 -40.8902 -40.8866 -40.8861 -40.8842 -40.8533 -40.8519
   -40.8487 -40.8429 -40.8266 -40.8137 -40.8133 -40.7767 -40.7553 -40.6926
   -40.5547 -36.1168 -36.0946 -36.0749 -36.0674 -36.0556 -36.0447 -36.0200
   -35.9989 -35.9972 -35.9874 -35.9723 -35.9648 -35.9525 -35.9454 -35.9336
   -35.9308 -35.9237 -35.9069 -35.8965 -35.8935 -35.8674 -35.8650 -35.8576
   -35.8549 -35.8357 -35.7861 -35.7287 -35.6917 -35.6515 -35.6402 -30.8475
   -30.7982 -30.7067 -30.6832 -30.6551 -30.6410 -30.6319 -30.6316 -30.6012
   -30.5821 -30.5608 -30.5471 -30.5370 -30.4980 -30.4948 -30.4914 -30.4849
   -30.4713 -30.4537 -30.4362 -30.4207 -30.4142 -30.3745 -30.3647 -30.3432
   -30.3221 -30.3072 -30.2913 -30.2675 -30.2447 -30.2316 -30.2137 -30.1896
   -10.8215  -9.7590  -9.3529  -9.2772  -9.1693  -9.0530  -8.6637  -8.4581
    -8.4136  -8.3859  -8.3630  -8.2637  -8.2310  -8.1437  -8.0751  -7.8910
    -7.8253  -7.7977  -7.6711  -7.6199  -7.5711  -7.5512  -7.4834  -7.4755
    -7.3502  -7.3291  -7.2249  -7.1525  -7.0009  -6.9553  -6.7836  -6.5030
    -4.0563  -4.0105  -3.9601  -3.8044  -3.0826  -2.9424  -2.7752  -2.7672
    -2.7301  -2.6947  -2.6574  -2.5716  -2.5220  -2.4592  -2.4516  -2.3228
    -2.1623  -2.1395  -2.0830  -1.9300  -1.9120  -1.8847  -1.8504  -1.7637
    -1.6873  -1.6225  -1.5785  -1.5375  -1.4744  -1.4677  -1.4557  -1.4482
    -1.4336  -1.4285  -1.4108  -1.3699  -1.3634  -1.2971  -1.2755  -1.2344
    -1.2204  -1.1944  -1.1317  -1.1035  -1.0557  -1.0469  -0.9983  -0.9644
    -0.9538  -0.8946  -0.8702  -0.8541  -0.8245  -0.7808  -0.7544  -0.7376
    -0.7242  -0.7119  -0.6802  -0.6520  -0.6041  -0.4662  -0.4369  -0.4236
    -0.3984  -0.3774  -0.2949  -0.2651  -0.2065  -0.2006  -0.1821  -0.0912
    -0.0773  -0.0327   0.0075   0.0354   0.0810   0.1721   0.3262   0.3692
     0.4274   0.5226   0.5430   0.6598   0.6645   0.7181   0.8058   0.9322
     0.9463   0.9580   1.1239   1.1572   1.2136   1.2407   1.2963   1.3466
     1.4743   1.6122   1.6280   1.6990   1.8195   1.8585   1.8871   2.1356
     2.5054   2.5854   2.6558   2.7046   2.7344   2.7738   2.8542   2.8615
     2.9185   2.9958   3.0234   3.0494   3.0640   3.1168   3.1536   3.1701
     3.1936   3.2391   3.2555   3.2671   3.2914   3.3285   3.3379   3.3753
     3.4094   3.4380   3.4669   3.4909   3.5123   3.5369   3.5664   3.6053
     3.6340   3.6897   3.7636   3.7854   3.8413   3.8749   3.8937   3.9330
     3.9500   4.0065   4.0073   4.0334   4.0554   4.0898   4.1230   4.1644
     4.1965   4.2448   4.2535   4.3450   4.3881   4.4244   4.4627   4.4959
     4.5221   4.5473   4.5529   4.6114   4.6141   4.7069

     the Fermi energy is     2.9093 ev

!    total energy              =   -5283.67283061 Ry
     estimated scf accuracy    <          1.6E-09 Ry
     smearing contrib. (-TS)   =      -0.03609786 Ry
     internal energy E=F+TS    =   -5283.63673275 Ry

     The total energy is F=E-TS. E is the sum of the following terms:
     one-electron contribution =  -56061.47570434 Ry
     hartree contribution      =   28054.19447905 Ry
     xc contribution           =    -787.54893561 Ry
     ewald contribution        =   23708.79251008 Ry
     one-center paw contrib.   =    -197.59908193 Ry

     convergence has been achieved in  54 iterations

     negative rho (up, down):  3.490E-02 0.000E+00

     Forces acting on atoms (cartesian axes, Ry/au):

     atom    1 type  1   force =     0.00056011   -0.00329000    0.00013606
     atom    2 type  1   force =    -0.00982928   -0.00530863    0.00101591
     atom    3 type  1   force =    -0.00057936   -0.00003107   -0.00055162
     atom    4 type  1   force =    -0.00034792   -0.01693109    0.03129713
     atom    5 type  1   force =    -0.00459538    0.01237960    0.00224899
     atom    6 type  1   force =     0.00867000   -0.00324933    0.02700086
     atom    7 type  1   force =    -0.00055514    0.00032383    0.00865831
     atom    8 type  1   force =     0.00125937    0.00134754    0.01134783
     atom    9 type  1   force =    -0.00055169   -0.00054342    0.00485530
     atom   10 type  1   force =    -0.00229478   -0.00565641    0.00019091
     atom   11 type  1   force =     0.00220110   -0.00865059    0.00173151
     atom   12 type  2   force =    -0.00135493   -0.00747051   -0.00443381
     atom   13 type  2   force =     0.00060010   -0.01120354   -0.00293115
     atom   14 type  2   force =     0.02330302   -0.00417920    0.00683312
     atom   15 type  2   force =    -0.01057436    0.00099644    0.11502774
     atom   16 type  2   force =     0.00679486   -0.00084083    0.09537064
     atom   17 type  2   force =     0.00153059    0.00233050   -0.00010490
     atom   18 type  2   force =     0.00149789   -0.00148929   -0.00605665
     atom   19 type  2   force =     0.00207100   -0.00156903    0.01446729
     atom   20 type  2   force =     0.00271484   -0.01013198   -0.01052172
     atom   21 type  2   force =     0.00333151    0.02114349   -0.01627801
     atom   22 type  3   force =     0.00290027   -0.01562159    0.00130454
     atom   23 type  3   force =    -0.02347098   -0.01169741    0.00660427
     atom   24 type  3   force =     0.03077450    0.01616890   -0.01539067
     atom   25 type  3   force =     0.01479040   -0.01425770    0.07130197
     atom   26 type  3   force =    -0.00384763    0.01081139    0.12450392
     atom   27 type  3   force =    -0.00192961    0.00123372   -0.00002611
     atom   28 type  3   force =    -0.00822681    0.00031998    0.03360261
     atom   29 type  3   force =    -0.00132175   -0.00489140   -0.00237942
     atom   30 type  3   force =    -0.00184402   -0.00486018    0.00069852
     atom   31 type  3   force =     0.00645209   -0.00248313   -0.01530314
     atom   32 type  3   force =    -0.01217913   -0.00079755   -0.01026994
     atom   33 type  4   force =     0.00175702   -0.00696341   -0.03424941
     atom   34 type  4   force =     0.00993906    0.01270686   -0.00571204
     atom   35 type  4   force =    -0.00324848   -0.01709207   -0.02153452
     atom   36 type  4   force =     0.00013396    0.01125412   -0.03384615
     atom   37 type  4   force =     0.00024449   -0.00045486    0.00336000
     atom   38 type  4   force =     0.00036057   -0.00031404    0.00148002
     atom   39 type  4   force =    -0.00093767   -0.00520053    0.00362934
     atom   40 type  4   force =     0.00048564   -0.00088245    0.00267499
     atom   41 type  4   force =     0.00241001    0.00667268   -0.00322968
     atom   42 type  4   force =     0.00217939    0.00879883   -0.00041661
     atom   43 type  4   force =    -0.00129283    0.00642834   -0.00358868
     atom   44 type  4   force =    -0.00107033    0.00980564   -0.00010571
     atom   45 type  4   force =     0.00173476    0.00814927   -0.03985053
     atom   46 type  4   force =     0.00422443    0.00207672   -0.04794764
     atom   47 type  4   force =    -0.00904175   -0.00055291   -0.02452272
     atom   48 type  4   force =    -0.01608139   -0.00837256   -0.02562600
     atom   49 type  4   force =     0.00137721    0.00255960    0.00272716
     atom   50 type  4   force =     0.00125676    0.01087349    0.00830731
     atom   51 type  4   force =    -0.00109407    0.01113846   -0.00194978
     atom   52 type  4   force =    -0.00084132    0.01198908    0.00582869
     atom   53 type  4   force =    -0.00142084   -0.00521522   -0.03567760
     atom   54 type  4   force =    -0.00544793    0.00949059   -0.03957888
     atom   55 type  4   force =    -0.00012105    0.00665844   -0.04205015
     atom   56 type  4   force =    -0.00126279   -0.00606462   -0.03690541
     atom   57 type  4   force =    -0.01594966    0.00881834   -0.02552543
     atom   58 type  4   force =    -0.00899309   -0.00675760   -0.03221304
     atom   59 type  4   force =     0.01438564    0.01343531   -0.03126357
     atom   60 type  4   force =     0.00218247   -0.01134497   -0.01742532
     atom   61 type  4   force =    -0.00257049   -0.00150378    0.00297266
     atom   62 type  4   force =    -0.00069807   -0.00046486   -0.00316289
     atom   63 type  4   force =     0.00066155   -0.00124372    0.00357536
     atom   64 type  4   force =     0.00078989   -0.00032970   -0.00212407

     Total force =     0.045592     Total SCF correction =     0.000097
     Energy error            =      2.1E-03 Ry
     Gradient error          =      1.6E-02 Ry/Bohr

     number of scf cycles    =   8
     number of bfgs steps    =   7

     energy             old  =   -5283.6707252396 Ry
     energy             new  =   -5283.6728306147 Ry

     CASE: energy            _new < energy            _old

     new trust radius        =       0.1086760654 bohr
     new conv_thr            =       0.0000000016 Ry


ATOMIC_POSITIONS (angstrom)
Ti               8.3714894045        0.0207782462       15.7794915009
Ti               0.0291331002        8.3621570543       11.5803477355    0   0   0
Ti               2.0909139022        4.2108214688       13.6840766740
Ti               8.3795041056        2.0957563981        9.4724378689    0   0   0
Ti               8.3750099733        6.2687152092        9.4933225157    0   0   0
Ti               4.2170671874        6.2898439467        9.4911460380    0   0   0
Ti               8.3719094044        2.1012989380       13.6318520483
Ti               8.3825189193        6.2627457295       13.6137597224
Ti               4.2029670057        6.2617821272       13.6235137692
Ti               2.1022578843        6.2513314133       15.7921434696
Ti               6.3092793514        6.2533943408       15.7861978687
V                8.4064719952        4.1262319151       15.6701717315
V                4.1932644178        4.1069569386       15.6556267817
V                4.1453105473        4.2119457891       11.5975026988    0   0   0
V                2.1879867013        0.0520231596        9.5054883674    0   0   0
V                2.1522427348        4.1319303501        9.4904675789    0   0   0
V                2.0755296993        8.3435273148       13.6520256658
V                6.3027973908        4.2358006028       13.7552509087
V                4.1791656150        2.1104725335       13.5431914771
V                2.1048639148        6.2714192178       11.5723879270    0   0   0
V                6.3158808164        6.1438819511       11.5700667150    0   0   0
Cr               4.2037482883       -0.1374749648       15.5373044716
Cr               0.1179128009        4.1786640750       11.5195623927    0   0   0
Cr               4.1681598842        8.2577799257       11.6615352591    0   0   0
Cr               6.1999882077        0.1106418811        9.6948923906    0   0   0
Cr               6.2007452456        4.0563627707        9.3394942948    0   0   0
Cr               6.3374791630        8.2625875100       13.5970223507
Cr               4.2149984025        2.0754774019        9.7444374941    0   0   0
Cr               2.1525830226        2.0938247041       15.5872394519
Cr               6.2256068234        2.0970126044       15.5410607425
Cr               2.0054620409        2.1149661174       11.6192682974    0   0   0
Cr               6.3992485267        2.2488278238       11.6549867199    0   0   0
C                8.3671464633        0.0123762133        9.4921945368    0   0   0
C                8.3685510870        4.1683341954        9.4949958325    0   0   0
C                4.2233794382        0.0660683478        9.5137772640    0   0   0
C                4.2071394793        4.1170355077        9.4900603783    0   0   0
C                8.3711021265       -0.0068692713       13.7531039925
C                8.3618516543        4.1706128593       13.7349886444
C                4.2217505054        0.0000476213       13.6721177204
C                4.2160817724        4.1313803960       13.7129333871
C                2.2059808471        0.0872139764       15.9228756984
C                2.1206818735        4.1226260595       15.9037850139
C                6.1874642868        0.0866336623       15.9136492796
C                6.2762803899        4.1183512267       15.8579556099
C                2.1521326937        0.0175132539       11.5903255372    0   0   0
C                2.1078429860        4.1683083653       11.5671868517    0   0   0
C                6.2417937451        0.0188099573       11.6002801854    0   0   0
C                6.3283074126        4.1569384024       11.5682471185    0   0   0
C                8.3747889395        2.1535898277       15.9416400464
C                8.3817562709        6.2490863865       15.9928806862
C                4.2108319956        2.0485128943       15.7918828244
C                4.2087560335        6.3556904627       15.8918949379
C                0.0147673152        2.1438801594       11.5939557114    0   0   0
C                0.0200697416        6.2277703895       11.5821679336    0   0   0
C                4.2182428542        2.0594943016       11.6100232202    0   0   0
C                4.2117703951        6.2583221129       11.5919858628    0   0   0
C                2.1713130363        2.0860319016        9.4919958919    0   0   0
C                2.1164500536        6.2753611976        9.5156635851    0   0   0
C                6.2203151227        2.0809934926        9.4961719556    0   0   0
C                6.2861737462        6.2618311600        9.5257047400    0   0   0
C                2.1425167686        2.0657960568       13.7267168584
C                2.1057080555        6.2951293074       13.7530585801
C                6.2544153916        2.0763655921       13.6838939247
C                6.3015335265        6.2477497001       13.7279207673



     Writing config-only to output data dir ./tmp/hec3_CrTiV_f100_CO_clean.save/ :
     XML data file
     NEW-OLD atomic charge density approx. for the potential

     Check: negative core charge=   -0.000005

     negative rho (up, down):  3.493E-02 0.000E+00

     total cpu time spent up to now is     3330.0 secs

     Self-consistent Calculation

     iteration #  1     ecut=    60.00 Ry     beta= 0.30
     Davidson diagonalization with overlap
     ethr =  1.00E-06,  avg # of iterations =  8.0

     negative rho (up, down):  3.498E-02 0.000E+00

     total cpu time spent up to now is     3342.9 secs

     total energy              =   -5283.65522130 Ry
     estimated scf accuracy    <       0.05249148 Ry

     iteration #  2     ecut=    60.00 Ry     beta= 0.30
     Davidson diagonalization with overlap
     ethr =  9.65E-06,  avg # of iterations = 17.0

     negative rho (up, down):  3.494E-02 0.000E+00

     total cpu time spent up to now is     3357.8 secs

     total energy              =   -5283.57707002 Ry
     estimated scf accuracy    <       3.71322238 Ry

     iteration #  3     ecut=    60.00 Ry     beta= 0.30
     Davidson diagonalization with overlap
     c_bands:  2 eigenvalues not converged
     ethr =  9.65E-06,  avg # of iterations = 20.0

     negative rho (up, down):  3.486E-02 0.000E+00

     total cpu time spent up to now is     3377.0 secs

     total energy              =   -5283.63488288 Ry
     estimated scf accuracy    <       2.54007639 Ry

     iteration #  4     ecut=    60.00 Ry     beta= 0.30
     Davidson diagonalization with overlap
     ethr =  9.65E-06,  avg # of iterations = 19.0

     negative rho (up, down):  3.492E-02 0.000E+00

     total cpu time spent up to now is     3392.0 secs

     total energy              =   -5283.66865364 Ry
     estimated scf accuracy    <       0.17412258 Ry

     iteration #  5     ecut=    60.00 Ry     beta= 0.30
     Davidson diagonalization with overlap
     ethr =  9.65E-06,  avg # of iterations =  2.0

     negative rho (up, down):  3.492E-02 0.000E+00

     total cpu time spent up to now is     3399.6 secs

     total energy              =   -5283.67224885 Ry
     estimated scf accuracy    <       0.05352349 Ry

     iteration #  6     ecut=    60.00 Ry     beta= 0.30
     Davidson diagonalization with overlap
     ethr =  9.65E-06,  avg # of iterations =  2.0

     negative rho (up, down):  3.495E-02 0.000E+00

     total cpu time spent up to now is     3406.7 secs

     total energy              =   -5283.67330941 Ry
     estimated scf accuracy    <       0.04517158 Ry

     iteration #  7     ecut=    60.00 Ry     beta= 0.30
     Davidson diagonalization with overlap
     ethr =  8.30E-06,  avg # of iterations =  1.0

     negative rho (up, down):  3.495E-02 0.000E+00

     total cpu time spent up to now is     3413.4 secs

     total energy              =   -5283.67422234 Ry
     estimated scf accuracy    <       0.01582186 Ry

     iteration #  8     ecut=    60.00 Ry     beta= 0.30
     Davidson diagonalization with overlap
     ethr =  2.91E-06,  avg # of iterations =  2.0

     negative rho (up, down):  3.496E-02 0.000E+00

     total cpu time spent up to now is     3420.7 secs

     total energy              =   -5283.67466273 Ry
     estimated scf accuracy    <       0.00942785 Ry

     iteration #  9     ecut=    60.00 Ry     beta= 0.30
     Davidson diagonalization with overlap
     ethr =  1.73E-06,  avg # of iterations =  2.0

     negative rho (up, down):  3.496E-02 0.000E+00

     total cpu time spent up to now is     3427.8 secs

     total energy              =   -5283.67480253 Ry
     estimated scf accuracy    <       0.00562993 Ry

     iteration # 10     ecut=    60.00 Ry     beta= 0.30
     Davidson diagonalization with overlap
     ethr =  1.03E-06,  avg # of iterations =  2.0

     negative rho (up, down):  3.496E-02 0.000E+00

     total cpu time spent up to now is     3434.8 secs

     total energy              =   -5283.67496110 Ry
     estimated scf accuracy    <       0.00274892 Ry

     iteration # 11     ecut=    60.00 Ry     beta= 0.30
     Davidson diagonalization with overlap
     ethr =  5.05E-07,  avg # of iterations =  2.0

     negative rho (up, down):  3.497E-02 0.000E+00

     total cpu time spent up to now is     3441.9 secs

     total energy              =   -5283.67502375 Ry
     estimated scf accuracy    <       0.00148234 Ry

     iteration # 12     ecut=    60.00 Ry     beta= 0.30
     Davidson diagonalization with overlap
     ethr =  2.72E-07,  avg # of iterations =  2.0

     negative rho (up, down):  3.497E-02 0.000E+00

     total cpu time spent up to now is     3448.8 secs

     total energy              =   -5283.67501734 Ry
     estimated scf accuracy    <       0.00139041 Ry

     iteration # 13     ecut=    60.00 Ry     beta= 0.30
     Davidson diagonalization with overlap
     ethr =  2.56E-07,  avg # of iterations =  2.0

     negative rho (up, down):  3.497E-02 0.000E+00

     total cpu time spent up to now is     3455.9 secs

     total energy              =   -5283.67489336 Ry
     estimated scf accuracy    <       0.01482239 Ry

     iteration # 14     ecut=    60.00 Ry     beta= 0.30
     Davidson diagonalization with overlap
     ethr =  2.56E-07,  avg # of iterations =  1.0

     negative rho (up, down):  3.497E-02 0.000E+00

     total cpu time spent up to now is     3462.6 secs

     total energy              =   -5283.67509326 Ry
     estimated scf accuracy    <       0.00110245 Ry

     iteration # 15     ecut=    60.00 Ry     beta= 0.30
     Davidson diagonalization with overlap
     ethr =  2.03E-07,  avg # of iterations =  2.0

     negative rho (up, down):  3.497E-02 0.000E+00

     total cpu time spent up to now is     3470.2 secs

     total energy              =   -5283.67511669 Ry
     estimated scf accuracy    <       0.00015898 Ry

     iteration # 16     ecut=    60.00 Ry     beta= 0.30
     Davidson diagonalization with overlap
     ethr =  2.92E-08,  avg # of iterations =  5.0

     negative rho (up, down):  3.497E-02 0.000E+00

     total cpu time spent up to now is     3478.8 secs

     total energy              =   -5283.67511201 Ry
     estimated scf accuracy    <       0.00044795 Ry

     iteration # 17     ecut=    60.00 Ry     beta= 0.30
     Davidson diagonalization with overlap
     ethr =  2.92E-08,  avg # of iterations =  2.0

     negative rho (up, down):  3.497E-02 0.000E+00

     total cpu time spent up to now is     3486.4 secs

     total energy              =   -5283.67512171 Ry
     estimated scf accuracy    <       0.00023248 Ry

     iteration # 18     ecut=    60.00 Ry     beta= 0.30
     Davidson diagonalization with overlap
     ethr =  2.92E-08,  avg # of iterations =  1.0

     negative rho (up, down):  3.497E-02 0.000E+00

     total cpu time spent up to now is     3493.2 secs

     total energy              =   -5283.67512468 Ry
     estimated scf accuracy    <       0.00011275 Ry

     iteration # 19     ecut=    60.00 Ry     beta= 0.30
     Davidson diagonalization with overlap
     ethr =  2.07E-08,  avg # of iterations =  2.0

     negative rho (up, down):  3.498E-02 0.000E+00

     total cpu time spent up to now is     3501.3 secs

     total energy              =   -5283.67512664 Ry
     estimated scf accuracy    <       0.00007814 Ry

     iteration # 20     ecut=    60.00 Ry     beta= 0.30
     Davidson diagonalization with overlap
     ethr =  1.44E-08,  avg # of iterations =  1.0

     negative rho (up, down):  3.498E-02 0.000E+00

     total cpu time spent up to now is     3507.8 secs

     total energy              =   -5283.67512685 Ry
     estimated scf accuracy    <       0.00007722 Ry

     iteration # 21     ecut=    60.00 Ry     beta= 0.30
     Davidson diagonalization with overlap
     ethr =  1.42E-08,  avg # of iterations =  1.0

     negative rho (up, down):  3.497E-02 0.000E+00

     total cpu time spent up to now is     3514.1 secs

     total energy              =   -5283.67512888 Ry
     estimated scf accuracy    <       0.00004064 Ry

     iteration # 22     ecut=    60.00 Ry     beta= 0.30
     Davidson diagonalization with overlap
     ethr =  7.47E-09,  avg # of iterations =  1.0

     negative rho (up, down):  3.497E-02 0.000E+00

     total cpu time spent up to now is     3520.4 secs

     total energy              =   -5283.67513041 Ry
     estimated scf accuracy    <       0.00001047 Ry

     iteration # 23     ecut=    60.00 Ry     beta= 0.30
     Davidson diagonalization with overlap
     ethr =  1.92E-09,  avg # of iterations =  6.0

     negative rho (up, down):  3.498E-02 0.000E+00

     total cpu time spent up to now is     3529.0 secs

     total energy              =   -5283.67512939 Ry
     estimated scf accuracy    <       0.00004328 Ry

     iteration # 24     ecut=    60.00 Ry     beta= 0.30
     Davidson diagonalization with overlap
     ethr =  1.92E-09,  avg # of iterations =  5.0

     negative rho (up, down):  3.497E-02 0.000E+00

     total cpu time spent up to now is     3537.4 secs

     total energy              =   -5283.67512794 Ry
     estimated scf accuracy    <       0.00017848 Ry

     iteration # 25     ecut=    60.00 Ry     beta= 0.30
     Davidson diagonalization with overlap
     ethr =  1.92E-09,  avg # of iterations =  5.0

     negative rho (up, down):  3.497E-02 0.000E+00

     total cpu time spent up to now is     3546.0 secs

     total energy              =   -5283.67513030 Ry
     estimated scf accuracy    <       0.00001838 Ry

     iteration # 26     ecut=    60.00 Ry     beta= 0.30
     Davidson diagonalization with overlap
     ethr =  1.92E-09,  avg # of iterations =  2.0

     negative rho (up, down):  3.497E-02 0.000E+00

     total cpu time spent up to now is     3552.9 secs

     total energy              =   -5283.67513039 Ry
     estimated scf accuracy    <       0.00001577 Ry

     iteration # 27     ecut=    60.00 Ry     beta= 0.30
     Davidson diagonalization with overlap
     ethr =  1.92E-09,  avg # of iterations =  2.0

     negative rho (up, down):  3.497E-02 0.000E+00

     total cpu time spent up to now is     3559.8 secs

     total energy              =   -5283.67513034 Ry
     estimated scf accuracy    <       0.00003185 Ry

     iteration # 28     ecut=    60.00 Ry     beta= 0.30
     Davidson diagonalization with overlap
     ethr =  1.92E-09,  avg # of iterations =  1.0

     negative rho (up, down):  3.497E-02 0.000E+00

     total cpu time spent up to now is     3566.5 secs

     total energy              =   -5283.67513094 Ry
     estimated scf accuracy    <       0.00000638 Ry

     iteration # 29     ecut=    60.00 Ry     beta= 0.30
     Davidson diagonalization with overlap
     ethr =  1.17E-09,  avg # of iterations =  2.0

     negative rho (up, down):  3.497E-02 0.000E+00

     total cpu time spent up to now is     3573.5 secs

     total energy              =   -5283.67513102 Ry
     estimated scf accuracy    <       0.00000484 Ry

     iteration # 30     ecut=    60.00 Ry     beta= 0.30
     Davidson diagonalization with overlap
     ethr =  8.90E-10,  avg # of iterations =  1.0

     negative rho (up, down):  3.497E-02 0.000E+00

     total cpu time spent up to now is     3580.1 secs

     total energy              =   -5283.67513107 Ry
     estimated scf accuracy    <       0.00000367 Ry

     iteration # 31     ecut=    60.00 Ry     beta= 0.30
     Davidson diagonalization with overlap
     ethr =  6.74E-10,  avg # of iterations =  1.0

     negative rho (up, down):  3.497E-02 0.000E+00

     total cpu time spent up to now is     3586.5 secs

     total energy              =   -5283.67513109 Ry
     estimated scf accuracy    <       0.00000388 Ry

     iteration # 32     ecut=    60.00 Ry     beta= 0.30
     Davidson diagonalization with overlap
     ethr =  6.74E-10,  avg # of iterations =  1.0

     negative rho (up, down):  3.497E-02 0.000E+00

     total cpu time spent up to now is     3592.6 secs

     total energy              =   -5283.67513125 Ry
     estimated scf accuracy    <       0.00000050 Ry

     iteration # 33     ecut=    60.00 Ry     beta= 0.30
     Davidson diagonalization with overlap
     ethr =  9.24E-11,  avg # of iterations =  2.0

     negative rho (up, down):  3.497E-02 0.000E+00

     total cpu time spent up to now is     3599.7 secs

     total energy              =   -5283.67513125 Ry
     estimated scf accuracy    <       0.00000064 Ry

     iteration # 34     ecut=    60.00 Ry     beta= 0.30
     Davidson diagonalization with overlap
     ethr =  9.24E-11,  avg # of iterations =  2.0

     negative rho (up, down):  3.497E-02 0.000E+00

     total cpu time spent up to now is     3606.7 secs

     total energy              =   -5283.67513120 Ry
     estimated scf accuracy    <       0.00000314 Ry

     iteration # 35     ecut=    60.00 Ry     beta= 0.30
     Davidson diagonalization with overlap
     ethr =  9.24E-11,  avg # of iterations =  5.0

     negative rho (up, down):  3.497E-02 0.000E+00

     total cpu time spent up to now is     3615.3 secs

     total energy              =   -5283.67513121 Ry
     estimated scf accuracy    <       0.00000226 Ry

     iteration # 36     ecut=    60.00 Ry     beta= 0.30
     Davidson diagonalization with overlap
     ethr =  9.24E-11,  avg # of iterations =  5.0

     negative rho (up, down):  3.497E-02 0.000E+00

     total cpu time spent up to now is     3623.9 secs

     total energy              =   -5283.67513124 Ry
     estimated scf accuracy    <       0.00000124 Ry

     iteration # 37     ecut=    60.00 Ry     beta= 0.30
     Davidson diagonalization with overlap
     ethr =  9.24E-11,  avg # of iterations =  2.0

     negative rho (up, down):  3.497E-02 0.000E+00

     total cpu time spent up to now is     3631.1 secs

     total energy              =   -5283.67513124 Ry
     estimated scf accuracy    <       0.00000180 Ry

     iteration # 38     ecut=    60.00 Ry     beta= 0.30
     Davidson diagonalization with overlap
     ethr =  9.24E-11,  avg # of iterations =  2.0

     negative rho (up, down):  3.497E-02 0.000E+00

     total cpu time spent up to now is     3638.4 secs

     total energy              =   -5283.67513127 Ry
     estimated scf accuracy    <       0.00000060 Ry

     iteration # 39     ecut=    60.00 Ry     beta= 0.30
     Davidson diagonalization with overlap
     ethr =  9.24E-11,  avg # of iterations =  1.0

     negative rho (up, down):  3.497E-02 0.000E+00

     total cpu time spent up to now is     3645.1 secs

     total energy              =   -5283.67513128 Ry
     estimated scf accuracy    <       0.00000040 Ry

     iteration # 40     ecut=    60.00 Ry     beta= 0.30
     Davidson diagonalization with overlap
     ethr =  7.37E-11,  avg # of iterations =  2.0

     negative rho (up, down):  3.497E-02 0.000E+00

     total cpu time spent up to now is     3652.1 secs

     total energy              =   -5283.67513128 Ry
     estimated scf accuracy    <       0.00000043 Ry

     iteration # 41     ecut=    60.00 Ry     beta= 0.30
     Davidson diagonalization with overlap
     ethr =  7.37E-11,  avg # of iterations =  1.0

     negative rho (up, down):  3.497E-02 0.000E+00

     total cpu time spent up to now is     3658.5 secs

     total energy              =   -5283.67513128 Ry
     estimated scf accuracy    <       0.00000024 Ry

     iteration # 42     ecut=    60.00 Ry     beta= 0.30
     Davidson diagonalization with overlap
     ethr =  4.35E-11,  avg # of iterations =  1.0

     negative rho (up, down):  3.497E-02 0.000E+00

     total cpu time spent up to now is     3665.0 secs

     total energy              =   -5283.67513129 Ry
     estimated scf accuracy    <       0.00000012 Ry

     iteration # 43     ecut=    60.00 Ry     beta= 0.30
     Davidson diagonalization with overlap
     ethr =  2.16E-11,  avg # of iterations =  1.0

     negative rho (up, down):  3.497E-02 0.000E+00

     total cpu time spent up to now is     3671.6 secs

     total energy              =   -5283.67513130 Ry
     estimated scf accuracy    <       0.00000004 Ry

     iteration # 44     ecut=    60.00 Ry     beta= 0.30
     Davidson diagonalization with overlap
     ethr =  6.85E-12,  avg # of iterations =  2.0

     negative rho (up, down):  3.497E-02 0.000E+00

     total cpu time spent up to now is     3678.9 secs

     total energy              =   -5283.67513129 Ry
     estimated scf accuracy    <       0.00000013 Ry

     iteration # 45     ecut=    60.00 Ry     beta= 0.30
     Davidson diagonalization with overlap
     ethr =  6.85E-12,  avg # of iterations =  2.0

     negative rho (up, down):  3.497E-02 0.000E+00

     total cpu time spent up to now is     3686.2 secs

     total energy              =   -5283.67513130 Ry
     estimated scf accuracy    <       0.00000021 Ry

     iteration # 46     ecut=    60.00 Ry     beta= 0.30
     Davidson diagonalization with overlap
     ethr =  6.85E-12,  avg # of iterations =  2.0

     negative rho (up, down):  3.497E-02 0.000E+00

     total cpu time spent up to now is     3693.6 secs

     total energy              =   -5283.67513129 Ry
     estimated scf accuracy    <       0.00000007 Ry

     iteration # 47     ecut=    60.00 Ry     beta= 0.30
     Davidson diagonalization with overlap
     ethr =  6.85E-12,  avg # of iterations =  2.0

     negative rho (up, down):  3.497E-02 0.000E+00

     total cpu time spent up to now is     3700.9 secs

     total energy              =   -5283.67513130 Ry
     estimated scf accuracy    <       0.00000009 Ry

     iteration # 48     ecut=    60.00 Ry     beta= 0.30
     Davidson diagonalization with overlap
     ethr =  6.85E-12,  avg # of iterations =  1.0

     negative rho (up, down):  3.497E-02 0.000E+00

     total cpu time spent up to now is     3707.2 secs

     total energy              =   -5283.67513130 Ry
     estimated scf accuracy    <       0.00000006 Ry

     iteration # 49     ecut=    60.00 Ry     beta= 0.30
     Davidson diagonalization with overlap
     ethr =  6.85E-12,  avg # of iterations =  1.0

     negative rho (up, down):  3.497E-02 0.000E+00

     total cpu time spent up to now is     3713.6 secs

     total energy              =   -5283.67513130 Ry
     estimated scf accuracy    <       0.00000004 Ry

     iteration # 50     ecut=    60.00 Ry     beta= 0.30
     Davidson diagonalization with overlap
     ethr =  6.85E-12,  avg # of iterations =  1.0

     negative rho (up, down):  3.497E-02 0.000E+00

     total cpu time spent up to now is     3720.0 secs

     total energy              =   -5283.67513130 Ry
     estimated scf accuracy    <       0.00000004 Ry

     iteration # 51     ecut=    60.00 Ry     beta= 0.30
     Davidson diagonalization with overlap
     ethr =  6.85E-12,  avg # of iterations =  1.0

     negative rho (up, down):  3.497E-02 0.000E+00

     total cpu time spent up to now is     3726.9 secs

     total energy              =   -5283.67513130 Ry
     estimated scf accuracy    <       0.00000001 Ry

     iteration # 52     ecut=    60.00 Ry     beta= 0.30
     Davidson diagonalization with overlap
     ethr =  2.43E-12,  avg # of iterations =  2.0

     negative rho (up, down):  3.497E-02 0.000E+00

     total cpu time spent up to now is     3734.3 secs

     total energy              =   -5283.67513130 Ry
     estimated scf accuracy    <       0.00000002 Ry

     iteration # 53     ecut=    60.00 Ry     beta= 0.30
     Davidson diagonalization with overlap
     ethr =  2.43E-12,  avg # of iterations =  1.0

     negative rho (up, down):  3.497E-02 0.000E+00

     total cpu time spent up to now is     3740.8 secs

     total energy              =   -5283.67513130 Ry
     estimated scf accuracy    <          7.3E-09 Ry

     iteration # 54     ecut=    60.00 Ry     beta= 0.30
     Davidson diagonalization with overlap
     ethr =  1.34E-12,  avg # of iterations =  1.0

     negative rho (up, down):  3.497E-02 0.000E+00

     total cpu time spent up to now is     3747.5 secs

     total energy              =   -5283.67513130 Ry
     estimated scf accuracy    <       0.00000001 Ry

     iteration # 55     ecut=    60.00 Ry     beta= 0.30
     Davidson diagonalization with overlap
     ethr =  1.34E-12,  avg # of iterations =  1.0

     negative rho (up, down):  3.497E-02 0.000E+00

     total cpu time spent up to now is     3754.2 secs

     total energy              =   -5283.67513130 Ry
     estimated scf accuracy    <       0.00000002 Ry

     iteration # 56     ecut=    60.00 Ry     beta= 0.30
     Davidson diagonalization with overlap
     ethr =  1.34E-12,  avg # of iterations =  1.0

     negative rho (up, down):  3.497E-02 0.000E+00

     total cpu time spent up to now is     3760.6 secs

     total energy              =   -5283.67513130 Ry
     estimated scf accuracy    <          4.2E-09 Ry

     iteration # 57     ecut=    60.00 Ry     beta= 0.30
     Davidson diagonalization with overlap
     ethr =  7.76E-13,  avg # of iterations =  1.0

     negative rho (up, down):  3.497E-02 0.000E+00

     total cpu time spent up to now is     3767.2 secs

     total energy              =   -5283.67513130 Ry
     estimated scf accuracy    <          5.6E-09 Ry

     iteration # 58     ecut=    60.00 Ry     beta= 0.30
     Davidson diagonalization with overlap
     ethr =  7.76E-13,  avg # of iterations =  2.0

     negative rho (up, down):  3.497E-02 0.000E+00

     total cpu time spent up to now is     3774.2 secs

     total energy              =   -5283.67513130 Ry
     estimated scf accuracy    <          8.5E-09 Ry

     iteration # 59     ecut=    60.00 Ry     beta= 0.30
     Davidson diagonalization with overlap
     ethr =  7.76E-13,  avg # of iterations =  1.0

     negative rho (up, down):  3.497E-02 0.000E+00

     total cpu time spent up to now is     3780.7 secs

     total energy              =   -5283.67513130 Ry
     estimated scf accuracy    <          3.5E-09 Ry

     iteration # 60     ecut=    60.00 Ry     beta= 0.30
     Davidson diagonalization with overlap
     ethr =  6.40E-13,  avg # of iterations =  1.0

     negative rho (up, down):  3.497E-02 0.000E+00

     total cpu time spent up to now is     3787.2 secs

     total energy              =   -5283.67513130 Ry
     estimated scf accuracy    <          2.3E-09 Ry

     iteration # 61     ecut=    60.00 Ry     beta= 0.30
     Davidson diagonalization with overlap
     ethr =  4.23E-13,  avg # of iterations =  1.0

     negative rho (up, down):  3.497E-02 0.000E+00

     total cpu time spent up to now is     3793.4 secs

     End of self-consistent calculation

          k = 0.0000 0.0000 0.0000 ( 46961 PWs)   bands (ev):

   -69.6729 -69.6025 -69.5930 -69.5928 -69.5893 -69.5812 -69.5668 -69.5494
   -69.5245 -69.3908 -69.3455 -62.1622 -62.1544 -62.1422 -62.1055 -62.0898
   -62.0315 -62.0209 -61.9953 -61.9677 -61.7867 -54.4274 -54.3988 -54.2964
   -54.1273 -54.1139 -54.1007 -54.0945 -54.0878 -54.0679 -54.0401 -53.9388
   -41.0853 -41.0790 -41.0745 -41.0550 -41.0461 -41.0404 -41.0093 -40.9942
   -40.9870 -40.9813 -40.9687 -40.9658 -40.9494 -40.9400 -40.9341 -40.9281
   -40.9040 -40.9030 -40.8984 -40.8953 -40.8821 -40.8624 -40.8535 -40.8410
   -40.8393 -40.8232 -40.8191 -40.8069 -40.7860 -40.7500 -40.7030 -40.6908
   -40.5656 -36.1260 -36.1029 -36.0875 -36.0802 -36.0696 -36.0526 -36.0259
   -36.0113 -35.9980 -35.9969 -35.9765 -35.9625 -35.9578 -35.9493 -35.9415
   -35.9335 -35.9281 -35.9078 -35.9027 -35.8867 -35.8752 -35.8704 -35.8596
   -35.8298 -35.8046 -35.7964 -35.7138 -35.6743 -35.6362 -35.6187 -30.8630
   -30.8149 -30.7182 -30.6963 -30.6687 -30.6543 -30.6460 -30.6347 -30.6075
   -30.5846 -30.5613 -30.5581 -30.5382 -30.5046 -30.5014 -30.4957 -30.4906
   -30.4749 -30.4567 -30.4412 -30.4194 -30.4022 -30.3687 -30.3592 -30.3495
   -30.3275 -30.3097 -30.2888 -30.2714 -30.2376 -30.2284 -30.2081 -30.1967
   -10.8222  -9.7461  -9.3565  -9.2796  -9.1745  -9.0549  -8.6618  -8.4439
    -8.3951  -8.3791  -8.3555  -8.2716  -8.2319  -8.1467  -8.0807  -7.8955
    -7.8316  -7.7984  -7.6780  -7.6281  -7.5802  -7.5580  -7.4866  -7.4458
    -7.3221  -7.3153  -7.1886  -7.1176  -7.0107  -6.9629  -6.7479  -6.4759
    -4.0577  -4.0136  -3.9619  -3.8040  -3.0811  -2.9461  -2.7683  -2.7472
    -2.7153  -2.6925  -2.6584  -2.5696  -2.5236  -2.4623  -2.4570  -2.3245
    -2.1626  -2.1346  -2.0842  -1.9343  -1.9119  -1.8890  -1.8566  -1.7625
    -1.6831  -1.6134  -1.5674  -1.5464  -1.4787  -1.4733  -1.4641  -1.4562
    -1.4436  -1.4297  -1.4137  -1.3695  -1.3569  -1.2855  -1.2763  -1.2334
    -1.2135  -1.1874  -1.1277  -1.0999  -1.0515  -1.0196  -0.9971  -0.9653
    -0.9530  -0.8867  -0.8667  -0.8370  -0.8106  -0.7857  -0.7513  -0.7348
    -0.7132  -0.7027  -0.6835  -0.6564  -0.5919  -0.4817  -0.4392  -0.4020
    -0.3747  -0.3511  -0.2839  -0.2276  -0.2042  -0.1904  -0.1770  -0.0934
    -0.0723  -0.0233   0.0188   0.0345   0.0749   0.1815   0.3373   0.3842
     0.4249   0.5307   0.5541   0.6645   0.6758   0.7296   0.8113   0.9326
     0.9479   0.9687   1.1121   1.1563   1.2055   1.2414   1.2980   1.3349
     1.4723   1.6038   1.6284   1.6953   1.8092   1.8638   1.8939   2.1382
     2.4843   2.5770   2.6433   2.6866   2.7310   2.7434   2.8441   2.8566
     2.9105   2.9893   3.0222   3.0396   3.0614   3.1242   3.1474   3.1630
     3.2020   3.2380   3.2505   3.2664   3.2887   3.3271   3.3307   3.3854
     3.4090   3.4459   3.4845   3.5058   3.5121   3.5388   3.5671   3.6101
     3.6436   3.6831   3.7796   3.7907   3.8355   3.8741   3.8903   3.9360
     3.9507   3.9979   4.0123   4.0365   4.0505   4.0880   4.1272   4.1665
     4.1981   4.2502   4.2579   4.3377   4.3830   4.4345   4.4546   4.5004
     4.5137   4.5455   4.5477   4.6162   4.6354   4.7047

     the Fermi energy is     2.9001 ev

!    total energy              =   -5283.67513130 Ry
     estimated scf accuracy    <          7.7E-10 Ry
     smearing contrib. (-TS)   =      -0.03333672 Ry
     internal energy E=F+TS    =   -5283.64179458 Ry

     The total energy is F=E-TS. E is the sum of the following terms:
     one-electron contribution =  -56029.25275831 Ry
     hartree contribution      =   28038.09137954 Ry
     xc contribution           =    -787.53413160 Ry
     ewald contribution        =   23692.65276020 Ry
     one-center paw contrib.   =    -197.59904441 Ry

     convergence has been achieved in  61 iterations

     negative rho (up, down):  3.497E-02 0.000E+00

     Forces acting on atoms (cartesian axes, Ry/au):

     atom    1 type  1   force =     0.00046179   -0.00145301   -0.00346301
     atom    2 type  1   force =    -0.00962537   -0.00496206   -0.00084812
     atom    3 type  1   force =    -0.00124309    0.00064462   -0.00138443
     atom    4 type  1   force =    -0.00045339   -0.01694250    0.03145819
     atom    5 type  1   force =    -0.00464183    0.01241469    0.00216553
     atom    6 type  1   force =     0.00861220   -0.00285183    0.02708957
     atom    7 type  1   force =    -0.00072244   -0.00035229    0.01229627
     atom    8 type  1   force =     0.00230617    0.00286866    0.01684332
     atom    9 type  1   force =    -0.00138152   -0.00248702    0.00627775
     atom   10 type  1   force =    -0.00423631   -0.00771207   -0.00178493
     atom   11 type  1   force =     0.00312812   -0.01074192    0.00067028
     atom   12 type  2   force =    -0.00462332   -0.01095281   -0.01043443
     atom   13 type  2   force =     0.00132382   -0.01703915   -0.00661334
     atom   14 type  2   force =     0.02351849   -0.00486932    0.00602093
     atom   15 type  2   force =    -0.01025438    0.00092848    0.11551994
     atom   16 type  2   force =     0.00666114   -0.00071014    0.09570446
     atom   17 type  2   force =     0.00236467    0.00241097    0.00086670
     atom   18 type  2   force =     0.00265359   -0.00160470   -0.01035553
     atom   19 type  2   force =     0.00284016   -0.00102233    0.01883113
     atom   20 type  2   force =     0.00280650   -0.01063235   -0.01126353
     atom   21 type  2   force =     0.00297187    0.01930872   -0.01775452
     atom   22 type  3   force =     0.00491784   -0.00366503    0.00095572
     atom   23 type  3   force =    -0.02277861   -0.01297633    0.00619755
     atom   24 type  3   force =     0.03170464    0.01869631   -0.01560565
     atom   25 type  3   force =     0.01428857   -0.01463588    0.07115942
     atom   26 type  3   force =    -0.00378494    0.01099547    0.12421404
     atom   27 type  3   force =    -0.00434588    0.00342274    0.00102615
     atom   28 type  3   force =    -0.00845245    0.00040573    0.03431117
     atom   29 type  3   force =    -0.00315176   -0.00677195   -0.00755482
     atom   30 type  3   force =    -0.00254061   -0.00731150   -0.00149168
     atom   31 type  3   force =     0.00688993   -0.00197465   -0.01613716
     atom   32 type  3   force =    -0.01362794    0.00067394   -0.01002423
     atom   33 type  4   force =     0.00176320   -0.00703275   -0.03453878
     atom   34 type  4   force =     0.00987329    0.01263734   -0.00633944
     atom   35 type  4   force =    -0.00324504   -0.01726977   -0.02266032
     atom   36 type  4   force =     0.00022136    0.01123519   -0.03350433
     atom   37 type  4   force =     0.00062296   -0.00005837    0.00936002
     atom   38 type  4   force =     0.00061288   -0.00173938    0.00656884
     atom   39 type  4   force =    -0.00168734   -0.00508752    0.00896608
     atom   40 type  4   force =     0.00085205   -0.00191178    0.00431189
     atom   41 type  4   force =     0.00483247    0.00674148   -0.00592072
     atom   42 type  4   force =     0.00340794    0.01094737    0.00100532
     atom   43 type  4   force =    -0.00143044    0.00555010   -0.00591022
     atom   44 type  4   force =    -0.00224218    0.01286737    0.00175301
     atom   45 type  4   force =     0.00101994    0.00840814   -0.03981552
     atom   46 type  4   force =     0.00407518    0.00227281   -0.04773958
     atom   47 type  4   force =    -0.00842960   -0.00042370   -0.02432115
     atom   48 type  4   force =    -0.01613010   -0.00828468   -0.02615809
     atom   49 type  4   force =     0.00263039    0.00101563   -0.00096685
     atom   50 type  4   force =     0.00164475    0.01377171    0.00771563
     atom   51 type  4   force =    -0.00117915    0.01731276   -0.00343809
     atom   52 type  4   force =    -0.00095526    0.00629443    0.00778285
     atom   53 type  4   force =    -0.00136381   -0.00518578   -0.03558507
     atom   54 type  4   force =    -0.00538710    0.00986865   -0.04196786
     atom   55 type  4   force =    -0.00014609    0.00616444   -0.04312889
     atom   56 type  4   force =    -0.00115801   -0.00704946   -0.03830374
     atom   57 type  4   force =    -0.01601543    0.00896133   -0.02550876
     atom   58 type  4   force =    -0.00888343   -0.00668856   -0.03272172
     atom   59 type  4   force =     0.01449454    0.01354272   -0.03114599
     atom   60 type  4   force =     0.00216498   -0.01128351   -0.01759624
     atom   61 type  4   force =    -0.00326141   -0.00247319    0.00580222
     atom   62 type  4   force =    -0.00018018   -0.00151376   -0.00021050
     atom   63 type  4   force =     0.00145557   -0.00193068    0.00718367
     atom   64 type  4   force =     0.00043739   -0.00076005    0.00013958

     Total force =     0.059793     Total SCF correction =     0.000097
     Energy error            =      2.3E-03 Ry
     Gradient error          =      1.9E-02 Ry/Bohr

     number of scf cycles    =   9
     number of bfgs steps    =   8

     energy             old  =   -5283.6728306147 Ry
     energy             new  =   -5283.6751313017 Ry

     CASE: energy            _new < energy            _old

     new trust radius        =       0.0577780962 bohr
     new conv_thr            =       0.0000000019 Ry


ATOMIC_POSITIONS (angstrom)
Ti               8.3700016264        0.0190042378       15.7850774287
Ti               0.0291331002        8.3621570543       11.5803477355    0   0   0
Ti               2.0912555548        4.2116550711       13.6845816143
Ti               8.3795041056        2.0957563981        9.4724378689    0   0   0
Ti               8.3750099733        6.2687152092        9.4933225157    0   0   0
Ti               4.2170671874        6.2898439467        9.4911460380    0   0   0
Ti               8.3712263087        2.1035622632       13.6333446584
Ti               8.3828276909        6.2621116988       13.6134105227
Ti               4.2031812868        6.2610321611       13.6201895408
Ti               2.0968464729        6.2472869708       15.7972548196
Ti               6.3161926595        6.2455937233       15.7922062684
V                8.4105942058        4.1231253427       15.6746713321
V                4.1922228175        4.0955201054       15.6564877071
V                4.1453105473        4.2119457891       11.5975026988    0   0   0
V                2.1879867013        0.0520231596        9.5054883674    0   0   0
V                2.1522427348        4.1319303501        9.4904675789    0   0   0
V                2.0767491122        8.3451921468       13.6520738905
V                6.3033214452        4.2367012874       13.7576686083
V                4.1791916321        2.1105636493       13.5492430135
V                2.1048639148        6.2714192178       11.5723879270    0   0   0
V                6.3158808164        6.1438819511       11.5700667150    0   0   0
Cr               4.2075884429       -0.1675279722       15.5414144015
Cr               0.1179128009        4.1786640750       11.5195623927    0   0   0
Cr               4.1681598842        8.2577799257       11.6615352591    0   0   0
Cr               6.1999882077        0.1106418811        9.6948923906    0   0   0
Cr               6.2007452456        4.0563627707        9.3394942948    0   0   0
Cr               6.3379582782        8.2574368666       13.5969627318
Cr               4.2149984025        2.0754774019        9.7444374941    0   0   0
Cr               2.1476574939        2.0939946119       15.5924311014
Cr               6.2252253124        2.0986730548       15.5443281251
Cr               2.0054620409        2.1149661174       11.6192682974    0   0   0
Cr               6.3992485267        2.2488278238       11.6549867199    0   0   0
C                8.3671464633        0.0123762133        9.4921945368    0   0   0
C                8.3685510870        4.1683341954        9.4949958325    0   0   0
C                4.2233794382        0.0660683478        9.5137772640    0   0   0
C                4.2071394793        4.1170355077        9.4900603783    0   0   0
C                8.3701361584       -0.0073028713       13.7483205704
C                8.3617733049        4.1720695427       13.7286111902
C                4.2221862884       -0.0067700841       13.6666870027
C                4.2165784327        4.1310218599       13.7140600855
C                2.2129743407        0.0951536886       15.9254380556
C                2.1244043578        4.1307142367       15.9046163799
C                6.1815522604        0.0932051626       15.9167345528
C                6.2748697359        4.1256434492       15.8584390417
C                2.1521326937        0.0175132539       11.5903255372    0   0   0
C                2.1078429860        4.1683083653       11.5671868517    0   0   0
C                6.2417937451        0.0188099573       11.6002801854    0   0   0
C                6.3283074126        4.1569384024       11.5682471185    0   0   0
C                8.3762415107        2.1574763397       15.9534655543
C                8.3839833347        6.2576203242       16.0063546986
C                4.2116193306        2.0541124340       15.7903191621
C                4.2083380628        6.3691185029       15.8985100770
C                0.0147673152        2.1438801594       11.5939557114    0   0   0
C                0.0200697416        6.2277703895       11.5821679336    0   0   0
C                4.2182428542        2.0594943016       11.6100232202    0   0   0
C                4.2117703951        6.2583221129       11.5919858628    0   0   0
C                2.1713130363        2.0860319016        9.4919958919    0   0   0
C                2.1164500536        6.2753611976        9.5156635851    0   0   0
C                6.2203151227        2.0809934926        9.4961719556    0   0   0
C                6.2861737462        6.2618311600        9.5257047400    0   0   0
C                2.1407186541        2.0660830617       13.7282593363
C                2.1039809570        6.2963454488       13.7465396667
C                6.2539980138        2.0759505388       13.6834008152
C                6.3034469946        6.2471149337       13.7234099168



     Writing config-only to output data dir ./tmp/hec3_CrTiV_f100_CO_clean.save/ :
     XML data file
     NEW-OLD atomic charge density approx. for the potential

     Check: negative core charge=   -0.000005

     negative rho (up, down):  3.502E-02 0.000E+00

     total cpu time spent up to now is     3803.3 secs

     Self-consistent Calculation

     iteration #  1     ecut=    60.00 Ry     beta= 0.30
     Davidson diagonalization with overlap
     ethr =  1.00E-06,  avg # of iterations =  7.0

     negative rho (up, down):  3.510E-02 0.000E+00

     total cpu time spent up to now is     3815.7 secs

     total energy              =   -5283.65773720 Ry
     estimated scf accuracy    <       0.04318754 Ry

     iteration #  2     ecut=    60.00 Ry     beta= 0.30
     Davidson diagonalization with overlap
     ethr =  7.94E-06,  avg # of iterations = 20.0

     negative rho (up, down):  3.494E-02 0.000E+00

     total cpu time spent up to now is     3832.4 secs

     total energy              =   -5283.53704520 Ry
     estimated scf accuracy    <       8.73872765 Ry

     iteration #  3     ecut=    60.00 Ry     beta= 0.30
     Davidson diagonalization with overlap
     ethr =  7.94E-06,  avg # of iterations = 19.0

     negative rho (up, down):  3.492E-02 0.000E+00

     total cpu time spent up to now is     3849.0 secs

     total energy              =   -5283.65684749 Ry
     estimated scf accuracy    <       0.85744385 Ry

     iteration #  4     ecut=    60.00 Ry     beta= 0.30
     Davidson diagonalization with overlap
     ethr =  7.94E-06,  avg # of iterations =  6.0

     negative rho (up, down):  3.496E-02 0.000E+00

     total cpu time spent up to now is     3857.8 secs

     total energy              =   -5283.67190137 Ry
     estimated scf accuracy    <       0.15205368 Ry

     iteration #  5     ecut=    60.00 Ry     beta= 0.30
     Davidson diagonalization with overlap
     ethr =  7.94E-06,  avg # of iterations =  2.0

     negative rho (up, down):  3.498E-02 0.000E+00

     total cpu time spent up to now is     3864.8 secs

     total energy              =   -5283.67522052 Ry
     estimated scf accuracy    <       0.01680932 Ry

     iteration #  6     ecut=    60.00 Ry     beta= 0.30
     Davidson diagonalization with overlap
     ethr =  3.09E-06,  avg # of iterations = 15.0

     negative rho (up, down):  3.500E-02 0.000E+00

     total cpu time spent up to now is     3878.1 secs

     total energy              =   -5283.67613881 Ry
     estimated scf accuracy    <       0.00861173 Ry

     iteration #  7     ecut=    60.00 Ry     beta= 0.30
     Davidson diagonalization with overlap
     ethr =  1.58E-06,  avg # of iterations =  2.0

     negative rho (up, down):  3.502E-02 0.000E+00

     total cpu time spent up to now is     3885.5 secs

     total energy              =   -5283.67620877 Ry
     estimated scf accuracy    <       0.00802620 Ry

     iteration #  8     ecut=    60.00 Ry     beta= 0.30
     Davidson diagonalization with overlap
     ethr =  1.48E-06,  avg # of iterations =  2.0

     negative rho (up, down):  3.502E-02 0.000E+00

     total cpu time spent up to now is     3892.5 secs

     total energy              =   -5283.67647519 Ry
     estimated scf accuracy    <       0.00256330 Ry

     iteration #  9     ecut=    60.00 Ry     beta= 0.30
     Davidson diagonalization with overlap
     ethr =  4.71E-07,  avg # of iterations =  5.0

     negative rho (up, down):  3.502E-02 0.000E+00

     total cpu time spent up to now is     3900.8 secs

     total energy              =   -5283.67648567 Ry
     estimated scf accuracy    <       0.00349434 Ry

     iteration # 10     ecut=    60.00 Ry     beta= 0.30
     Davidson diagonalization with overlap
     ethr =  4.71E-07,  avg # of iterations =  1.0

     negative rho (up, down):  3.503E-02 0.000E+00

     total cpu time spent up to now is     3907.3 secs

     total energy              =   -5283.67657703 Ry
     estimated scf accuracy    <       0.00087500 Ry

     iteration # 11     ecut=    60.00 Ry     beta= 0.30
     Davidson diagonalization with overlap
     ethr =  1.61E-07,  avg # of iterations =  2.0

     negative rho (up, down):  3.504E-02 0.000E+00

     total cpu time spent up to now is     3914.3 secs

     total energy              =   -5283.67659300 Ry
     estimated scf accuracy    <       0.00066513 Ry

     iteration # 12     ecut=    60.00 Ry     beta= 0.30
     Davidson diagonalization with overlap
     ethr =  1.22E-07,  avg # of iterations =  2.0

     negative rho (up, down):  3.504E-02 0.000E+00

     total cpu time spent up to now is     3921.4 secs

     total energy              =   -5283.67650593 Ry
     estimated scf accuracy    <       0.00462745 Ry

     iteration # 13     ecut=    60.00 Ry     beta= 0.30
     Davidson diagonalization with overlap
     ethr =  1.22E-07,  avg # of iterations =  5.0

     negative rho (up, down):  3.504E-02 0.000E+00

     total cpu time spent up to now is     3929.9 secs

     total energy              =   -5283.67648080 Ry
     estimated scf accuracy    <       0.00819776 Ry

     iteration # 14     ecut=    60.00 Ry     beta= 0.30
     Davidson diagonalization with overlap
     ethr =  1.22E-07,  avg # of iterations =  5.0

     negative rho (up, down):  3.505E-02 0.000E+00

     total cpu time spent up to now is     3938.7 secs

     total energy              =   -5283.67656372 Ry
     estimated scf accuracy    <       0.00325566 Ry

     iteration # 15     ecut=    60.00 Ry     beta= 0.30
     Davidson diagonalization with overlap
     ethr =  1.22E-07,  avg # of iterations =  2.0

     negative rho (up, down):  3.505E-02 0.000E+00

     total cpu time spent up to now is     3945.9 secs

     total energy              =   -5283.67663536 Ry
     estimated scf accuracy    <       0.00005357 Ry

     iteration # 16     ecut=    60.00 Ry     beta= 0.30
     Davidson diagonalization with overlap
     ethr =  9.85E-09,  avg # of iterations =  7.0

     negative rho (up, down):  3.505E-02 0.000E+00

     total cpu time spent up to now is     3955.3 secs

     total energy              =   -5283.67663682 Ry
     estimated scf accuracy    <       0.00016556 Ry

     iteration # 17     ecut=    60.00 Ry     beta= 0.30
     Davidson diagonalization with overlap
     ethr =  9.85E-09,  avg # of iterations =  5.0

     negative rho (up, down):  3.505E-02 0.000E+00

     total cpu time spent up to now is     3963.5 secs

     total energy              =   -5283.67663982 Ry
     estimated scf accuracy    <       0.00009141 Ry

     iteration # 18     ecut=    60.00 Ry     beta= 0.30
     Davidson diagonalization with overlap
     ethr =  9.85E-09,  avg # of iterations =  2.0

     negative rho (up, down):  3.505E-02 0.000E+00

     total cpu time spent up to now is     3970.4 secs

     total energy              =   -5283.67664140 Ry
     estimated scf accuracy    <       0.00005555 Ry

     iteration # 19     ecut=    60.00 Ry     beta= 0.30
     Davidson diagonalization with overlap
     ethr =  9.85E-09,  avg # of iterations =  1.0

     negative rho (up, down):  3.505E-02 0.000E+00

     total cpu time spent up to now is     3977.0 secs

     total energy              =   -5283.67664263 Ry
     estimated scf accuracy    <       0.00002661 Ry

     iteration # 20     ecut=    60.00 Ry     beta= 0.30
     Davidson diagonalization with overlap
     ethr =  4.89E-09,  avg # of iterations =  2.0

     negative rho (up, down):  3.505E-02 0.000E+00

     total cpu time spent up to now is     3984.3 secs

     total energy              =   -5283.67664176 Ry
     estimated scf accuracy    <       0.00006133 Ry

     iteration # 21     ecut=    60.00 Ry     beta= 0.30
     Davidson diagonalization with overlap
     ethr =  4.89E-09,  avg # of iterations =  1.0

     negative rho (up, down):  3.505E-02 0.000E+00

     total cpu time spent up to now is     3990.8 secs

     total energy              =   -5283.67664348 Ry
     estimated scf accuracy    <       0.00001700 Ry

     iteration # 22     ecut=    60.00 Ry     beta= 0.30
     Davidson diagonalization with overlap
     ethr =  3.13E-09,  avg # of iterations =  2.0

     negative rho (up, down):  3.505E-02 0.000E+00

     total cpu time spent up to now is     3998.2 secs

     total energy              =   -5283.67664417 Ry
     estimated scf accuracy    <       0.00000503 Ry

     iteration # 23     ecut=    60.00 Ry     beta= 0.30
     Davidson diagonalization with overlap
     ethr =  9.25E-10,  avg # of iterations =  2.0

     negative rho (up, down):  3.505E-02 0.000E+00

     total cpu time spent up to now is     4005.5 secs

     total energy              =   -5283.67664403 Ry
     estimated scf accuracy    <       0.00001431 Ry

     iteration # 24     ecut=    60.00 Ry     beta= 0.30
     Davidson diagonalization with overlap
     ethr =  9.25E-10,  avg # of iterations =  2.0

     negative rho (up, down):  3.505E-02 0.000E+00

     total cpu time spent up to now is     4012.2 secs

     total energy              =   -5283.67664395 Ry
     estimated scf accuracy    <       0.00002332 Ry

     iteration # 25     ecut=    60.00 Ry     beta= 0.30
     Davidson diagonalization with overlap
     ethr =  9.25E-10,  avg # of iterations =  2.0

     negative rho (up, down):  3.505E-02 0.000E+00

     total cpu time spent up to now is     4019.2 secs

     total energy              =   -5283.67664408 Ry
     estimated scf accuracy    <       0.00001098 Ry

     iteration # 26     ecut=    60.00 Ry     beta= 0.30
     Davidson diagonalization with overlap
     ethr =  9.25E-10,  avg # of iterations =  2.0

     negative rho (up, down):  3.505E-02 0.000E+00

     total cpu time spent up to now is     4026.4 secs

     total energy              =   -5283.67664436 Ry
     estimated scf accuracy    <       0.00000373 Ry

     iteration # 27     ecut=    60.00 Ry     beta= 0.30
     Davidson diagonalization with overlap
     ethr =  6.85E-10,  avg # of iterations =  2.0

     negative rho (up, down):  3.505E-02 0.000E+00

     total cpu time spent up to now is     4033.3 secs

     total energy              =   -5283.67664439 Ry
     estimated scf accuracy    <       0.00000418 Ry

     iteration # 28     ecut=    60.00 Ry     beta= 0.30
     Davidson diagonalization with overlap
     ethr =  6.85E-10,  avg # of iterations =  1.0

     negative rho (up, down):  3.505E-02 0.000E+00

     total cpu time spent up to now is     4040.2 secs

     total energy              =   -5283.67664447 Ry
     estimated scf accuracy    <       0.00000213 Ry

     iteration # 29     ecut=    60.00 Ry     beta= 0.30
     Davidson diagonalization with overlap
     ethr =  3.92E-10,  avg # of iterations =  1.0

     negative rho (up, down):  3.505E-02 0.000E+00

     total cpu time spent up to now is     4046.7 secs

     total energy              =   -5283.67664451 Ry
     estimated scf accuracy    <       0.00000134 Ry

     iteration # 30     ecut=    60.00 Ry     beta= 0.30
     Davidson diagonalization with overlap
     ethr =  2.47E-10,  avg # of iterations =  1.0

     negative rho (up, down):  3.505E-02 0.000E+00

     total cpu time spent up to now is     4053.4 secs

     total energy              =   -5283.67664452 Ry
     estimated scf accuracy    <       0.00000109 Ry

     iteration # 31     ecut=    60.00 Ry     beta= 0.30
     Davidson diagonalization with overlap
     ethr =  2.00E-10,  avg # of iterations =  1.0

     negative rho (up, down):  3.505E-02 0.000E+00

     total cpu time spent up to now is     4059.7 secs

     total energy              =   -5283.67664454 Ry
     estimated scf accuracy    <       0.00000073 Ry

     iteration # 32     ecut=    60.00 Ry     beta= 0.30
     Davidson diagonalization with overlap
     ethr =  1.35E-10,  avg # of iterations =  1.0

     negative rho (up, down):  3.505E-02 0.000E+00

     total cpu time spent up to now is     4066.3 secs

     total energy              =   -5283.67664457 Ry
     estimated scf accuracy    <       0.00000017 Ry

     iteration # 33     ecut=    60.00 Ry     beta= 0.30
     Davidson diagonalization with overlap
     ethr =  3.17E-11,  avg # of iterations =  2.0

     negative rho (up, down):  3.505E-02 0.000E+00

     total cpu time spent up to now is     4073.4 secs

     total energy              =   -5283.67664457 Ry
     estimated scf accuracy    <       0.00000017 Ry

     iteration # 34     ecut=    60.00 Ry     beta= 0.30
     Davidson diagonalization with overlap
     ethr =  3.10E-11,  avg # of iterations =  1.0

     negative rho (up, down):  3.505E-02 0.000E+00

     total cpu time spent up to now is     4080.4 secs

     total energy              =   -5283.67664457 Ry
     estimated scf accuracy    <       0.00000050 Ry

     iteration # 35     ecut=    60.00 Ry     beta= 0.30
     Davidson diagonalization with overlap
     ethr =  3.10E-11,  avg # of iterations =  1.0

     negative rho (up, down):  3.505E-02 0.000E+00

     total cpu time spent up to now is     4087.2 secs

     total energy              =   -5283.67664457 Ry
     estimated scf accuracy    <       0.00000057 Ry

     iteration # 36     ecut=    60.00 Ry     beta= 0.30
     Davidson diagonalization with overlap
     ethr =  3.10E-11,  avg # of iterations =  1.0

     negative rho (up, down):  3.505E-02 0.000E+00

     total cpu time spent up to now is     4093.6 secs

     total energy              =   -5283.67664457 Ry
     estimated scf accuracy    <       0.00000015 Ry

     iteration # 37     ecut=    60.00 Ry     beta= 0.30
     Davidson diagonalization with overlap
     ethr =  2.74E-11,  avg # of iterations =  1.0

     negative rho (up, down):  3.505E-02 0.000E+00

     total cpu time spent up to now is     4099.9 secs

     total energy              =   -5283.67664458 Ry
     estimated scf accuracy    <       0.00000011 Ry

     iteration # 38     ecut=    60.00 Ry     beta= 0.30
     Davidson diagonalization with overlap
     ethr =  2.05E-11,  avg # of iterations =  1.0

     negative rho (up, down):  3.505E-02 0.000E+00

     total cpu time spent up to now is     4106.4 secs

     total energy              =   -5283.67664458 Ry
     estimated scf accuracy    <       0.00000006 Ry

     iteration # 39     ecut=    60.00 Ry     beta= 0.30
     Davidson diagonalization with overlap
     ethr =  1.10E-11,  avg # of iterations =  2.0

     negative rho (up, down):  3.505E-02 0.000E+00

     total cpu time spent up to now is     4113.7 secs

     total energy              =   -5283.67664458 Ry
     estimated scf accuracy    <       0.00000010 Ry

     iteration # 40     ecut=    60.00 Ry     beta= 0.30
     Davidson diagonalization with overlap
     ethr =  1.10E-11,  avg # of iterations =  1.0

     negative rho (up, down):  3.505E-02 0.000E+00

     total cpu time spent up to now is     4120.3 secs

     total energy              =   -5283.67664458 Ry
     estimated scf accuracy    <       0.00000005 Ry

     iteration # 41     ecut=    60.00 Ry     beta= 0.30
     Davidson diagonalization with overlap
     ethr =  9.61E-12,  avg # of iterations =  1.0

     negative rho (up, down):  3.505E-02 0.000E+00

     total cpu time spent up to now is     4126.8 secs

     total energy              =   -5283.67664458 Ry
     estimated scf accuracy    <       0.00000006 Ry

     iteration # 42     ecut=    60.00 Ry     beta= 0.30
     Davidson diagonalization with overlap
     ethr =  9.61E-12,  avg # of iterations =  1.0

     negative rho (up, down):  3.505E-02 0.000E+00

     total cpu time spent up to now is     4134.0 secs

     total energy              =   -5283.67664458 Ry
     estimated scf accuracy    <       0.00000003 Ry

     iteration # 43     ecut=    60.00 Ry     beta= 0.30
     Davidson diagonalization with overlap
     ethr =  6.43E-12,  avg # of iterations =  1.0

     negative rho (up, down):  3.505E-02 0.000E+00

     total cpu time spent up to now is     4140.8 secs

     total energy              =   -5283.67664458 Ry
     estimated scf accuracy    <       0.00000002 Ry

     iteration # 44     ecut=    60.00 Ry     beta= 0.30
     Davidson diagonalization with overlap
     ethr =  3.04E-12,  avg # of iterations =  1.0

     negative rho (up, down):  3.505E-02 0.000E+00

     total cpu time spent up to now is     4147.6 secs

     total energy              =   -5283.67664458 Ry
     estimated scf accuracy    <       0.00000004 Ry

     iteration # 45     ecut=    60.00 Ry     beta= 0.30
     Davidson diagonalization with overlap
     ethr =  3.04E-12,  avg # of iterations =  1.0

     negative rho (up, down):  3.505E-02 0.000E+00

     total cpu time spent up to now is     4154.0 secs

     total energy              =   -5283.67664458 Ry
     estimated scf accuracy    <       0.00000006 Ry

     iteration # 46     ecut=    60.00 Ry     beta= 0.30
     Davidson diagonalization with overlap
     ethr =  3.04E-12,  avg # of iterations =  1.0

     negative rho (up, down):  3.505E-02 0.000E+00

     total cpu time spent up to now is     4160.6 secs

     total energy              =   -5283.67664459 Ry
     estimated scf accuracy    <       0.00000001 Ry

     iteration # 47     ecut=    60.00 Ry     beta= 0.30
     Davidson diagonalization with overlap
     ethr =  2.62E-12,  avg # of iterations =  1.0

     negative rho (up, down):  3.505E-02 0.000E+00

     total cpu time spent up to now is     4167.2 secs

     total energy              =   -5283.67664458 Ry
     estimated scf accuracy    <       0.00000001 Ry

     iteration # 48     ecut=    60.00 Ry     beta= 0.30
     Davidson diagonalization with overlap
     ethr =  2.62E-12,  avg # of iterations =  1.0

     negative rho (up, down):  3.505E-02 0.000E+00

     total cpu time spent up to now is     4173.9 secs

     total energy              =   -5283.67664459 Ry
     estimated scf accuracy    <          2.5E-09 Ry

     iteration # 49     ecut=    60.00 Ry     beta= 0.30
     Davidson diagonalization with overlap
     ethr =  4.66E-13,  avg # of iterations =  2.0

     negative rho (up, down):  3.505E-02 0.000E+00

     total cpu time spent up to now is     4180.9 secs

     total energy              =   -5283.67664458 Ry
     estimated scf accuracy    <          4.8E-09 Ry

     iteration # 50     ecut=    60.00 Ry     beta= 0.30
     Davidson diagonalization with overlap
     ethr =  4.66E-13,  avg # of iterations =  1.0

     negative rho (up, down):  3.505E-02 0.000E+00

     total cpu time spent up to now is     4187.6 secs

     total energy              =   -5283.67664459 Ry
     estimated scf accuracy    <          4.2E-09 Ry

     iteration # 51     ecut=    60.00 Ry     beta= 0.30
     Davidson diagonalization with overlap
     ethr =  4.66E-13,  avg # of iterations =  2.0

     negative rho (up, down):  3.505E-02 0.000E+00

     total cpu time spent up to now is     4195.0 secs

     total energy              =   -5283.67664459 Ry
     estimated scf accuracy    <          3.4E-09 Ry

     iteration # 52     ecut=    60.00 Ry     beta= 0.30
     Davidson diagonalization with overlap
     ethr =  4.66E-13,  avg # of iterations =  1.0

     negative rho (up, down):  3.505E-02 0.000E+00

     total cpu time spent up to now is     4201.7 secs

     total energy              =   -5283.67664459 Ry
     estimated scf accuracy    <          2.4E-09 Ry

     iteration # 53     ecut=    60.00 Ry     beta= 0.30
     Davidson diagonalization with overlap
     ethr =  4.38E-13,  avg # of iterations =  1.0

     negative rho (up, down):  3.505E-02 0.000E+00

     total cpu time spent up to now is     4208.3 secs

     End of self-consistent calculation

          k = 0.0000 0.0000 0.0000 ( 46961 PWs)   bands (ev):

   -69.6815 -69.6101 -69.6002 -69.5945 -69.5874 -69.5712 -69.5677 -69.5286
   -69.5277 -69.3516 -69.3492 -62.1680 -62.1599 -62.1474 -62.1101 -62.0905
   -62.0347 -62.0256 -61.9736 -61.9522 -61.7749 -54.4336 -54.4050 -54.3007
   -54.1305 -54.1088 -54.1010 -54.0931 -54.0804 -54.0605 -54.0383 -53.9438
   -41.0917 -41.0887 -41.0822 -41.0643 -41.0451 -41.0200 -41.0039 -40.9955
   -40.9910 -40.9805 -40.9742 -40.9712 -40.9404 -40.9374 -40.9335 -40.9319
   -40.9093 -40.9091 -40.9041 -40.9005 -40.8705 -40.8671 -40.8588 -40.8468
   -40.8283 -40.8050 -40.7921 -40.7900 -40.7807 -40.7088 -40.7061 -40.6508
   -40.5700 -36.1301 -36.1059 -36.0922 -36.0850 -36.0745 -36.0556 -36.0287
   -36.0168 -36.0013 -35.9980 -35.9811 -35.9640 -35.9563 -35.9512 -35.9454
   -35.9352 -35.9239 -35.9118 -35.9035 -35.8798 -35.8729 -35.8679 -35.8580
   -35.8021 -35.7990 -35.7775 -35.7005 -35.6661 -35.6236 -35.6041 -30.8698
   -30.8220 -30.7225 -30.7017 -30.6745 -30.6596 -30.6520 -30.6328 -30.6094
   -30.5827 -30.5624 -30.5589 -30.5355 -30.5072 -30.5041 -30.4937 -30.4903
   -30.4748 -30.4564 -30.4415 -30.4190 -30.3890 -30.3626 -30.3534 -30.3481
   -30.3278 -30.3093 -30.2826 -30.2723 -30.2397 -30.2151 -30.2079 -30.1889
   -10.8209  -9.7367  -9.3567  -9.2798  -9.1756  -9.0536  -8.6593  -8.4342
    -8.3831  -8.3716  -8.3491  -8.2726  -8.2294  -8.1433  -8.0819  -7.8956
    -7.8328  -7.7957  -7.6792  -7.6292  -7.5831  -7.5593  -7.4880  -7.4251
    -7.3041  -7.3023  -7.1638  -7.0936  -7.0134  -6.9643  -6.7251  -6.4549
    -4.0552  -4.0112  -3.9587  -3.8033  -3.0781  -2.9455  -2.7658  -2.7384
    -2.7066  -2.6795  -2.6567  -2.5663  -2.5211  -2.4610  -2.4575  -2.3230
    -2.1609  -2.1305  -2.0830  -1.9345  -1.9092  -1.8889  -1.8569  -1.7608
    -1.6803  -1.6033  -1.5605  -1.5442  -1.4785  -1.4754  -1.4663  -1.4571
    -1.4463  -1.4283  -1.4135  -1.3693  -1.3512  -1.2819  -1.2721  -1.2328
    -1.2093  -1.1790  -1.1232  -1.0955  -1.0481  -1.0073  -0.9915  -0.9620
    -0.9467  -0.8836  -0.8605  -0.8247  -0.7910  -0.7867  -0.7490  -0.7306
    -0.7021  -0.6901  -0.6830  -0.6521  -0.5864  -0.4866  -0.4409  -0.3955
    -0.3581  -0.3268  -0.2768  -0.2040  -0.1998  -0.1751  -0.1672  -0.0923
    -0.0671  -0.0176   0.0270   0.0407   0.0799   0.1896   0.3463   0.3911
     0.4261   0.5440   0.5647   0.6660   0.6860   0.7439   0.8171   0.9325
     0.9564   0.9792   1.1092   1.1566   1.2048   1.2467   1.3051   1.3309
     1.4754   1.6019   1.6336   1.6955   1.7999   1.8746   1.9052   2.1403
     2.4810   2.5677   2.6386   2.6766   2.7284   2.7325   2.8422   2.8584
     2.9076   2.9870   3.0221   3.0349   3.0596   3.1279   3.1465   3.1614
     3.2022   3.2425   3.2514   3.2658   3.2900   3.3220   3.3348   3.3913
     3.4158   3.4523   3.4921   3.5137   3.5202   3.5432   3.5726   3.6154
     3.6508   3.6901   3.7788   3.8071   3.8378   3.8798   3.8919   3.9396
     3.9522   3.9961   4.0204   4.0428   4.0537   4.0915   4.1313   4.1715
     4.1992   4.2544   4.2685   4.3364   4.3793   4.4372   4.4539   4.5029
     4.5141   4.5429   4.5463   4.6255   4.6565   4.7030

     the Fermi energy is     2.8969 ev

!    total energy              =   -5283.67664458 Ry
     estimated scf accuracy    <          1.6E-09 Ry
     smearing contrib. (-TS)   =      -0.03188888 Ry
     internal energy E=F+TS    =   -5283.64475571 Ry

     The total energy is F=E-TS. E is the sum of the following terms:
     one-electron contribution =  -55999.20798038 Ry
     hartree contribution      =   28023.12487018 Ry
     xc contribution           =    -787.52259903 Ry
     ewald contribution        =   23677.55976951 Ry
     one-center paw contrib.   =    -197.59881598 Ry

     convergence has been achieved in  53 iterations

     negative rho (up, down):  3.505E-02 0.000E+00

     Forces acting on atoms (cartesian axes, Ry/au):

     atom    1 type  1   force =    -0.00018667   -0.00007146   -0.00787320
     atom    2 type  1   force =    -0.00945063   -0.00483578   -0.00105118
     atom    3 type  1   force =    -0.00168840    0.00176362   -0.00125995
     atom    4 type  1   force =    -0.00048483   -0.01692527    0.03157247
     atom    5 type  1   force =    -0.00463416    0.01242843    0.00223618
     atom    6 type  1   force =     0.00859874   -0.00254848    0.02717170
     atom    7 type  1   force =    -0.00061932   -0.00094704    0.01150202
     atom    8 type  1   force =     0.00286884    0.00399413    0.01602410
     atom    9 type  1   force =    -0.00205350   -0.00376932    0.00624457
     atom   10 type  1   force =    -0.00407725   -0.00841230   -0.00470162
     atom   11 type  1   force =     0.00224023   -0.01085933   -0.00176202
     atom   12 type  2   force =    -0.00655244   -0.01229205   -0.01546116
     atom   13 type  2   force =     0.00135199   -0.01837458   -0.00810167
     atom   14 type  2   force =     0.02352096   -0.00566673    0.00621568
     atom   15 type  2   force =    -0.01007434    0.00086106    0.11575522
     atom   16 type  2   force =     0.00655774   -0.00061454    0.09587433
     atom   17 type  2   force =     0.00214577    0.00181171    0.00168972
     atom   18 type  2   force =     0.00349595   -0.00057476   -0.01071999
     atom   19 type  2   force =     0.00252030   -0.00026152    0.01614257
     atom   20 type  2   force =     0.00248444   -0.01079534   -0.01152268
     atom   21 type  2   force =     0.00300614    0.01873749   -0.01831507
     atom   22 type  3   force =     0.00585883    0.00707779   -0.00173324
     atom   23 type  3   force =    -0.02232110   -0.01342531    0.00646874
     atom   24 type  3   force =     0.03210499    0.02038749   -0.01582563
     atom   25 type  3   force =     0.01396462   -0.01492106    0.07098596
     atom   26 type  3   force =    -0.00375853    0.01106745    0.12402257
     atom   27 type  3   force =    -0.00536463    0.00432829    0.00166083
     atom   28 type  3   force =    -0.00866066    0.00041612    0.03535417
     atom   29 type  3   force =    -0.00564565   -0.00871553   -0.01140243
     atom   30 type  3   force =    -0.00251260   -0.00924611   -0.00405464
     atom   31 type  3   force =     0.00732033   -0.00185489   -0.01589391
     atom   32 type  3   force =    -0.01453900    0.00085498   -0.00943842
     atom   33 type  4   force =     0.00175240   -0.00707985   -0.03479557
     atom   34 type  4   force =     0.00979828    0.01262527   -0.00671661
     atom   35 type  4   force =    -0.00319073   -0.01740021   -0.02331569
     atom   36 type  4   force =     0.00035645    0.01126597   -0.03330908
     atom   37 type  4   force =     0.00072981    0.00058853    0.01488047
     atom   38 type  4   force =     0.00080413   -0.00313425    0.01146063
     atom   39 type  4   force =    -0.00177690   -0.00341487    0.01348525
     atom   40 type  4   force =     0.00082540   -0.00329973    0.00473175
     atom   41 type  4   force =     0.00572911    0.00666371   -0.00621003
     atom   42 type  4   force =     0.00351031    0.01103268    0.00235632
     atom   43 type  4   force =    -0.00000264    0.00406319   -0.00574229
     atom   44 type  4   force =    -0.00234011    0.01291312    0.00335040
     atom   45 type  4   force =     0.00070448    0.00865264   -0.03999294
     atom   46 type  4   force =     0.00401330    0.00228468   -0.04769842
     atom   47 type  4   force =    -0.00816078   -0.00027725   -0.02432625
     atom   48 type  4   force =    -0.01601040   -0.00835345   -0.02658921
     atom   49 type  4   force =     0.00385391    0.00054488   -0.00350554
     atom   50 type  4   force =     0.00163149    0.01417962    0.00625070
     atom   51 type  4   force =    -0.00042586    0.01955539   -0.00467455
     atom   52 type  4   force =    -0.00047692    0.00145412    0.00844084
     atom   53 type  4   force =    -0.00144356   -0.00519511   -0.03447375
     atom   54 type  4   force =    -0.00536776    0.00992719   -0.04177714
     atom   55 type  4   force =    -0.00013802    0.00564056   -0.04180753
     atom   56 type  4   force =    -0.00102324   -0.00775188   -0.03858424
     atom   57 type  4   force =    -0.01606496    0.00903703   -0.02558038
     atom   58 type  4   force =    -0.00884006   -0.00662200   -0.03313634
     atom   59 type  4   force =     0.01457822    0.01368776   -0.03110262
     atom   60 type  4   force =     0.00212574   -0.01113672   -0.01784803
     atom   61 type  4   force =    -0.00283330   -0.00286507    0.00813503
     atom   62 type  4   force =     0.00079151   -0.00253900    0.00467927
     atom   63 type  4   force =     0.00175174   -0.00217662    0.00978412
     atom   64 type  4   force =    -0.00027725   -0.00148746    0.00382742

     Total force =     0.067583     Total SCF correction =     0.000123
     Energy error            =      1.5E-03 Ry
     Gradient error          =      2.0E-02 Ry/Bohr

     number of scf cycles    =  10
     number of bfgs steps    =   9

     energy             old  =   -5283.6751313017 Ry
     energy             new  =   -5283.6766445829 Ry

     CASE: energy            _new < energy            _old

     new trust radius        =       0.0390706349 bohr
     new conv_thr            =       0.0000000020 Ry


ATOMIC_POSITIONS (angstrom)
Ti               8.3680076939        0.0201749945       15.7924279536
Ti               0.0291331002        8.3621570543       11.5803477355    0   0   0
Ti               2.0917926067        4.2113948148       13.6835032202
Ti               8.3795041056        2.0957563981        9.4724378689    0   0   0
Ti               8.3750099733        6.2687152092        9.4933225157    0   0   0
Ti               4.2170671874        6.2898439467        9.4911460380    0   0   0
Ti               8.3703545879        2.1047391210       13.6419130069
Ti               8.3840047151        6.2629755784       13.6227884511
Ti               4.2032154786        6.2590014688       13.6220403334
Ti               2.0894310590        6.2411669015       15.8047819665
Ti               6.3234432657        6.2346356494       15.8007191813
V                8.4106178971        4.1156148363       15.6784982600
V                4.1917961617        4.0758942145       15.6561065403
V                4.1453105473        4.2119457891       11.5975026988    0   0   0
V                2.1879867013        0.0520231596        9.5054883674    0   0   0
V                2.1522427348        4.1319303501        9.4904675789    0   0   0
V                2.0815698574        8.3475226343       13.6527390477
V                6.3041280307        4.2354930052       13.7520390395
V                4.1814011893        2.1087566831       13.5650746643
V                2.1048639148        6.2714192178       11.5723879270    0   0   0
V                6.3158808164        6.1438819511       11.5700667150    0   0   0
Cr               4.2148122782       -0.1815811155       15.5491281070
Cr               0.1179128009        4.1786640750       11.5195623927    0   0   0
Cr               4.1681598842        8.2577799257       11.6615352591    0   0   0
Cr               6.1999882077        0.1106418811        9.6948923906    0   0   0
Cr               6.2007452456        4.0563627707        9.3394942948    0   0   0
Cr               6.3343968412        8.2546331741       13.5978826005
Cr               4.2149984025        2.0754774019        9.7444374941    0   0   0
Cr               2.1393550620        2.0902567768       15.5964429264
Cr               6.2230145689        2.0961942935       15.5488481135
Cr               2.0054620409        2.1149661174       11.6192682974    0   0   0
Cr               6.3992485267        2.2488278238       11.6549867199    0   0   0
C                8.3671464633        0.0123762133        9.4921945368    0   0   0
C                8.3685510870        4.1683341954        9.4949958325    0   0   0
C                4.2233794382        0.0660683478        9.5137772640    0   0   0
C                4.2071394793        4.1170355077        9.4900603783    0   0   0
C                8.3694425408       -0.0076101583       13.7451068610
C                8.3619350976        4.1734522640       13.7226541779
C                4.2212753743       -0.0151520251       13.6646274305
C                4.2174880062        4.1308856391       13.7159185088
C                2.2229517650        0.1048831638       15.9223257877
C                2.1303273406        4.1418770600       15.9051441187
C                6.1761579496        0.0998685238       15.9145326607
C                6.2721751143        4.1367997542       15.8592292505
C                2.1521326937        0.0175132539       11.5903255372    0   0   0
C                2.1078429860        4.1683083653       11.5671868517    0   0   0
C                6.2417937451        0.0188099573       11.6002801854    0   0   0
C                6.3283074126        4.1569384024       11.5682471185    0   0   0
C                8.3802321593        2.1591690541       15.9620575861
C                8.3878019724        6.2700493795       16.0224296540
C                4.2123801740        2.0682355756       15.7853812940
C                4.2072084921        6.3755721494       15.9092834594
C                0.0147673152        2.1438801594       11.5939557114    0   0   0
C                0.0200697416        6.2277703895       11.5821679336    0   0   0
C                4.2182428542        2.0594943016       11.6100232202    0   0   0
C                4.2117703951        6.2583221129       11.5919858628    0   0   0
C                2.1713130363        2.0860319016        9.4919958919    0   0   0
C                2.1164500536        6.2753611976        9.5156635851    0   0   0
C                6.2203151227        2.0809934926        9.4961719556    0   0   0
C                6.2861737462        6.2618311600        9.5257047400    0   0   0
C                2.1364157972        2.0652929005       13.7299881986
C                2.1017811209        6.2971957719       13.7379678323
C                6.2545940170        2.0745559798       13.6848735366
C                6.3057576762        6.2467945943       13.7175126581



     Writing config-only to output data dir ./tmp/hec3_CrTiV_f100_CO_clean.save/ :
     XML data file
     NEW-OLD atomic charge density approx. for the potential

     Check: negative core charge=   -0.000005

     negative rho (up, down):  3.540E-02 0.000E+00

     total cpu time spent up to now is     4218.6 secs

     Self-consistent Calculation

     iteration #  1     ecut=    60.00 Ry     beta= 0.30
     Davidson diagonalization with overlap
     ethr =  1.00E-06,  avg # of iterations = 12.0

     negative rho (up, down):  3.553E-02 0.000E+00

     total cpu time spent up to now is     4232.3 secs

     total energy              =   -5283.61339076 Ry
     estimated scf accuracy    <       0.14075716 Ry

     iteration #  2     ecut=    60.00 Ry     beta= 0.30
     Davidson diagonalization with overlap
     ethr =  2.59E-05,  avg # of iterations = 17.0

     negative rho (up, down):  3.544E-02 0.000E+00

     total cpu time spent up to now is     4248.4 secs

     total energy              =   -5283.22468811 Ry
     estimated scf accuracy    <      29.50400996 Ry

     iteration #  3     ecut=    60.00 Ry     beta= 0.30
     Davidson diagonalization with overlap
     ethr =  2.59E-05,  avg # of iterations = 15.0

     negative rho (up, down):  3.530E-02 0.000E+00

     total cpu time spent up to now is     4263.1 secs

     total energy              =   -5283.64371319 Ry
     estimated scf accuracy    <       1.42730074 Ry

     iteration #  4     ecut=    60.00 Ry     beta= 0.30
     Davidson diagonalization with overlap
     ethr =  2.59E-05,  avg # of iterations =  6.0

     negative rho (up, down):  3.531E-02 0.000E+00

     total cpu time spent up to now is     4272.1 secs

     total energy              =   -5283.67356134 Ry
     estimated scf accuracy    <       0.13768534 Ry

     iteration #  5     ecut=    60.00 Ry     beta= 0.30
     Davidson diagonalization with overlap
     ethr =  2.53E-05,  avg # of iterations =  1.0

     negative rho (up, down):  3.532E-02 0.000E+00

     total cpu time spent up to now is     4279.0 secs

     total energy              =   -5283.67729757 Ry
     estimated scf accuracy    <       0.02567103 Ry

     iteration #  6     ecut=    60.00 Ry     beta= 0.30
     Davidson diagonalization with overlap
     c_bands:  2 eigenvalues not converged
     ethr =  4.72E-06,  avg # of iterations = 20.0

     negative rho (up, down):  3.535E-02 0.000E+00

     total cpu time spent up to now is     4294.4 secs

     total energy              =   -5283.67919810 Ry
     estimated scf accuracy    <       0.00947219 Ry

     iteration #  7     ecut=    60.00 Ry     beta= 0.30
     Davidson diagonalization with overlap
     ethr =  1.74E-06,  avg # of iterations =  7.0

     negative rho (up, down):  3.537E-02 0.000E+00

     total cpu time spent up to now is     4303.7 secs

     total energy              =   -5283.67936389 Ry
     estimated scf accuracy    <       0.00629094 Ry

     iteration #  8     ecut=    60.00 Ry     beta= 0.30
     Davidson diagonalization with overlap
     ethr =  1.16E-06,  avg # of iterations =  2.0

     negative rho (up, down):  3.537E-02 0.000E+00

     total cpu time spent up to now is     4311.0 secs

     total energy              =   -5283.67955824 Ry
     estimated scf accuracy    <       0.00464862 Ry

     iteration #  9     ecut=    60.00 Ry     beta= 0.30
     Davidson diagonalization with overlap
     ethr =  8.55E-07,  avg # of iterations =  2.0

     negative rho (up, down):  3.539E-02 0.000E+00

     total cpu time spent up to now is     4318.1 secs

     total energy              =   -5283.67964206 Ry
     estimated scf accuracy    <       0.00227557 Ry

     iteration # 10     ecut=    60.00 Ry     beta= 0.30
     Davidson diagonalization with overlap
     ethr =  4.18E-07,  avg # of iterations =  2.0

     negative rho (up, down):  3.540E-02 0.000E+00

     total cpu time spent up to now is     4325.2 secs

     total energy              =   -5283.67966006 Ry
     estimated scf accuracy    <       0.00224097 Ry

     iteration # 11     ecut=    60.00 Ry     beta= 0.30
     Davidson diagonalization with overlap
     ethr =  4.12E-07,  avg # of iterations =  2.0

     negative rho (up, down):  3.540E-02 0.000E+00

     total cpu time spent up to now is     4332.2 secs

     total energy              =   -5283.67971358 Ry
     estimated scf accuracy    <       0.00106867 Ry

     iteration # 12     ecut=    60.00 Ry     beta= 0.30
     Davidson diagonalization with overlap
     ethr =  1.96E-07,  avg # of iterations =  2.0

     negative rho (up, down):  3.540E-02 0.000E+00

     total cpu time spent up to now is     4339.4 secs

     total energy              =   -5283.67966478 Ry
     estimated scf accuracy    <       0.00271790 Ry

     iteration # 13     ecut=    60.00 Ry     beta= 0.30
     Davidson diagonalization with overlap
     ethr =  1.96E-07,  avg # of iterations =  6.0

     negative rho (up, down):  3.541E-02 0.000E+00

     total cpu time spent up to now is     4348.4 secs

     total energy              =   -5283.67958097 Ry
     estimated scf accuracy    <       0.00872071 Ry

     iteration # 14     ecut=    60.00 Ry     beta= 0.30
     Davidson diagonalization with overlap
     ethr =  1.96E-07,  avg # of iterations =  5.0

     negative rho (up, down):  3.541E-02 0.000E+00

     total cpu time spent up to now is     4356.8 secs

     total energy              =   -5283.67972423 Ry
     estimated scf accuracy    <       0.00126020 Ry

     iteration # 15     ecut=    60.00 Ry     beta= 0.30
     Davidson diagonalization with overlap
     ethr =  1.96E-07,  avg # of iterations =  1.0

     negative rho (up, down):  3.541E-02 0.000E+00

     total cpu time spent up to now is     4363.2 secs

     total energy              =   -5283.67976497 Ry
     estimated scf accuracy    <       0.00003740 Ry

     iteration # 16     ecut=    60.00 Ry     beta= 0.30
     Davidson diagonalization with overlap
     ethr =  6.88E-09,  avg # of iterations =  7.0

     negative rho (up, down):  3.541E-02 0.000E+00

     total cpu time spent up to now is     4372.9 secs

     total energy              =   -5283.67975996 Ry
     estimated scf accuracy    <       0.00041493 Ry

     iteration # 17     ecut=    60.00 Ry     beta= 0.30
     Davidson diagonalization with overlap
     ethr =  6.88E-09,  avg # of iterations =  5.0

     negative rho (up, down):  3.541E-02 0.000E+00

     total cpu time spent up to now is     4381.2 secs

     total energy              =   -5283.67976968 Ry
     estimated scf accuracy    <       0.00007150 Ry

     iteration # 18     ecut=    60.00 Ry     beta= 0.30
     Davidson diagonalization with overlap
     ethr =  6.88E-09,  avg # of iterations =  2.0

     negative rho (up, down):  3.541E-02 0.000E+00

     total cpu time spent up to now is     4388.5 secs

     total energy              =   -5283.67977053 Ry
     estimated scf accuracy    <       0.00004945 Ry

     iteration # 19     ecut=    60.00 Ry     beta= 0.30
     Davidson diagonalization with overlap
     ethr =  6.88E-09,  avg # of iterations =  2.0

     negative rho (up, down):  3.541E-02 0.000E+00

     total cpu time spent up to now is     4395.6 secs

     total energy              =   -5283.67977047 Ry
     estimated scf accuracy    <       0.00006874 Ry

     iteration # 20     ecut=    60.00 Ry     beta= 0.30
     Davidson diagonalization with overlap
     ethr =  6.88E-09,  avg # of iterations =  2.0

     negative rho (up, down):  3.541E-02 0.000E+00

     total cpu time spent up to now is     4402.8 secs

     total energy              =   -5283.67977135 Ry
     estimated scf accuracy    <       0.00004107 Ry

     iteration # 21     ecut=    60.00 Ry     beta= 0.30
     Davidson diagonalization with overlap
     ethr =  6.88E-09,  avg # of iterations =  2.0

     negative rho (up, down):  3.541E-02 0.000E+00

     total cpu time spent up to now is     4410.2 secs

     total energy              =   -5283.67977154 Ry
     estimated scf accuracy    <       0.00004940 Ry

     iteration # 22     ecut=    60.00 Ry     beta= 0.30
     Davidson diagonalization with overlap
     ethr =  6.88E-09,  avg # of iterations =  1.0

     negative rho (up, down):  3.541E-02 0.000E+00

     total cpu time spent up to now is     4416.8 secs

     total energy              =   -5283.67977240 Ry
     estimated scf accuracy    <       0.00002984 Ry

     iteration # 23     ecut=    60.00 Ry     beta= 0.30
     Davidson diagonalization with overlap
     ethr =  5.48E-09,  avg # of iterations =  2.0

     negative rho (up, down):  3.541E-02 0.000E+00

     total cpu time spent up to now is     4423.8 secs

     total energy              =   -5283.67977120 Ry
     estimated scf accuracy    <       0.00009165 Ry

     iteration # 24     ecut=    60.00 Ry     beta= 0.30
     Davidson diagonalization with overlap
     ethr =  5.48E-09,  avg # of iterations =  1.0

     negative rho (up, down):  3.541E-02 0.000E+00

     total cpu time spent up to now is     4430.1 secs

     total energy              =   -5283.67977266 Ry
     estimated scf accuracy    <       0.00002456 Ry

     iteration # 25     ecut=    60.00 Ry     beta= 0.30
     Davidson diagonalization with overlap
     ethr =  4.51E-09,  avg # of iterations =  1.0

     negative rho (up, down):  3.541E-02 0.000E+00

     total cpu time spent up to now is     4436.7 secs

     total energy              =   -5283.67977336 Ry
     estimated scf accuracy    <       0.00000717 Ry

     iteration # 26     ecut=    60.00 Ry     beta= 0.30
     Davidson diagonalization with overlap
     ethr =  1.32E-09,  avg # of iterations =  1.0

     negative rho (up, down):  3.541E-02 0.000E+00

     total cpu time spent up to now is     4443.4 secs

     total energy              =   -5283.67977357 Ry
     estimated scf accuracy    <       0.00000483 Ry

     iteration # 27     ecut=    60.00 Ry     beta= 0.30
     Davidson diagonalization with overlap
     ethr =  8.88E-10,  avg # of iterations =  1.0

     negative rho (up, down):  3.541E-02 0.000E+00

     total cpu time spent up to now is     4450.0 secs

     total energy              =   -5283.67977360 Ry
     estimated scf accuracy    <       0.00000264 Ry

     iteration # 28     ecut=    60.00 Ry     beta= 0.30
     Davidson diagonalization with overlap
     ethr =  4.85E-10,  avg # of iterations =  1.0

     negative rho (up, down):  3.541E-02 0.000E+00

     total cpu time spent up to now is     4456.7 secs

     total energy              =   -5283.67977363 Ry
     estimated scf accuracy    <       0.00000251 Ry

     iteration # 29     ecut=    60.00 Ry     beta= 0.30
     Davidson diagonalization with overlap
     ethr =  4.62E-10,  avg # of iterations =  2.0

     negative rho (up, down):  3.541E-02 0.000E+00

     total cpu time spent up to now is     4464.0 secs

     total energy              =   -5283.67977361 Ry
     estimated scf accuracy    <       0.00000334 Ry

     iteration # 30     ecut=    60.00 Ry     beta= 0.30
     Davidson diagonalization with overlap
     ethr =  4.62E-10,  avg # of iterations =  1.0

     negative rho (up, down):  3.541E-02 0.000E+00

     total cpu time spent up to now is     4470.8 secs

     total energy              =   -5283.67977365 Ry
     estimated scf accuracy    <       0.00000304 Ry

     iteration # 31     ecut=    60.00 Ry     beta= 0.30
     Davidson diagonalization with overlap
     ethr =  4.62E-10,  avg # of iterations =  1.0

     negative rho (up, down):  3.541E-02 0.000E+00

     total cpu time spent up to now is     4482.5 secs

     total energy              =   -5283.67977369 Ry
     estimated scf accuracy    <       0.00000189 Ry

     iteration # 32     ecut=    60.00 Ry     beta= 0.30
     Davidson diagonalization with overlap
     ethr =  3.47E-10,  avg # of iterations =  1.0

     negative rho (up, down):  3.541E-02 0.000E+00

     total cpu time spent up to now is     4489.9 secs

     total energy              =   -5283.67977372 Ry
     estimated scf accuracy    <       0.00000222 Ry

     iteration # 33     ecut=    60.00 Ry     beta= 0.30
     Davidson diagonalization with overlap
     ethr =  3.47E-10,  avg # of iterations =  1.0

     negative rho (up, down):  3.541E-02 0.000E+00

     total cpu time spent up to now is     4497.4 secs

     total energy              =   -5283.67977374 Ry
     estimated scf accuracy    <       0.00000158 Ry

     iteration # 34     ecut=    60.00 Ry     beta= 0.30
     Davidson diagonalization with overlap
     ethr =  2.91E-10,  avg # of iterations =  1.0

     negative rho (up, down):  3.541E-02 0.000E+00

     total cpu time spent up to now is     4504.4 secs

     total energy              =   -5283.67977376 Ry
     estimated scf accuracy    <       0.00000024 Ry

     iteration # 35     ecut=    60.00 Ry     beta= 0.30
     Davidson diagonalization with overlap
     ethr =  4.49E-11,  avg # of iterations =  6.0

     negative rho (up, down):  3.541E-02 0.000E+00

     total cpu time spent up to now is     4514.2 secs

     total energy              =   -5283.67977368 Ry
     estimated scf accuracy    <       0.00000369 Ry

     iteration # 36     ecut=    60.00 Ry     beta= 0.30
     Davidson diagonalization with overlap
     ethr =  4.49E-11,  avg # of iterations =  6.0

     negative rho (up, down):  3.541E-02 0.000E+00

     total cpu time spent up to now is     4523.5 secs

     total energy              =   -5283.67977377 Ry
     estimated scf accuracy    <       0.00000081 Ry

     iteration # 37     ecut=    60.00 Ry     beta= 0.30
     Davidson diagonalization with overlap
     ethr =  4.49E-11,  avg # of iterations =  1.0

     negative rho (up, down):  3.541E-02 0.000E+00

     total cpu time spent up to now is     4530.3 secs

     total energy              =   -5283.67977379 Ry
     estimated scf accuracy    <       0.00000004 Ry

     iteration # 38     ecut=    60.00 Ry     beta= 0.30
     Davidson diagonalization with overlap
     ethr =  6.60E-12,  avg # of iterations =  6.0

     negative rho (up, down):  3.541E-02 0.000E+00

     total cpu time spent up to now is     4539.5 secs

     total energy              =   -5283.67977379 Ry
     estimated scf accuracy    <       0.00000006 Ry

     iteration # 39     ecut=    60.00 Ry     beta= 0.30
     Davidson diagonalization with overlap
     ethr =  6.60E-12,  avg # of iterations =  2.0

     negative rho (up, down):  3.541E-02 0.000E+00

     total cpu time spent up to now is     4546.9 secs

     total energy              =   -5283.67977379 Ry
     estimated scf accuracy    <       0.00000009 Ry

     iteration # 40     ecut=    60.00 Ry     beta= 0.30
     Davidson diagonalization with overlap
     ethr =  6.60E-12,  avg # of iterations =  2.0

     negative rho (up, down):  3.541E-02 0.000E+00

     total cpu time spent up to now is     4555.7 secs

     total energy              =   -5283.67977379 Ry
     estimated scf accuracy    <       0.00000008 Ry

     iteration # 41     ecut=    60.00 Ry     beta= 0.30
     Davidson diagonalization with overlap
     ethr =  6.60E-12,  avg # of iterations =  1.0

     negative rho (up, down):  3.541E-02 0.000E+00

     total cpu time spent up to now is     4563.0 secs

     total energy              =   -5283.67977379 Ry
     estimated scf accuracy    <       0.00000003 Ry

     iteration # 42     ecut=    60.00 Ry     beta= 0.30
     Davidson diagonalization with overlap
     ethr =  4.83E-12,  avg # of iterations =  2.0

     negative rho (up, down):  3.541E-02 0.000E+00

     total cpu time spent up to now is     4570.3 secs

     total energy              =   -5283.67977379 Ry
     estimated scf accuracy    <       0.00000005 Ry

     iteration # 43     ecut=    60.00 Ry     beta= 0.30
     Davidson diagonalization with overlap
     ethr =  4.83E-12,  avg # of iterations =  1.0

     negative rho (up, down):  3.541E-02 0.000E+00

     total cpu time spent up to now is     4577.5 secs

     total energy              =   -5283.67977379 Ry
     estimated scf accuracy    <       0.00000001 Ry

     iteration # 44     ecut=    60.00 Ry     beta= 0.30
     Davidson diagonalization with overlap
     ethr =  2.69E-12,  avg # of iterations =  1.0

     negative rho (up, down):  3.541E-02 0.000E+00

     total cpu time spent up to now is     4584.1 secs

     total energy              =   -5283.67977379 Ry
     estimated scf accuracy    <       0.00000002 Ry

     iteration # 45     ecut=    60.00 Ry     beta= 0.30
     Davidson diagonalization with overlap
     ethr =  2.69E-12,  avg # of iterations =  1.0

     negative rho (up, down):  3.541E-02 0.000E+00

     total cpu time spent up to now is     4590.8 secs

     total energy              =   -5283.67977379 Ry
     estimated scf accuracy    <       0.00000001 Ry

     iteration # 46     ecut=    60.00 Ry     beta= 0.30
     Davidson diagonalization with overlap
     ethr =  2.08E-12,  avg # of iterations =  2.0

     negative rho (up, down):  3.541E-02 0.000E+00

     total cpu time spent up to now is     4599.2 secs

     total energy              =   -5283.67977379 Ry
     estimated scf accuracy    <       0.00000005 Ry

     iteration # 47     ecut=    60.00 Ry     beta= 0.30
     Davidson diagonalization with overlap
     ethr =  2.08E-12,  avg # of iterations =  1.0

     negative rho (up, down):  3.541E-02 0.000E+00

     total cpu time spent up to now is     4605.7 secs

     total energy              =   -5283.67977379 Ry
     estimated scf accuracy    <       0.00000002 Ry

     iteration # 48     ecut=    60.00 Ry     beta= 0.30
     Davidson diagonalization with overlap
     ethr =  2.08E-12,  avg # of iterations =  1.0

     negative rho (up, down):  3.541E-02 0.000E+00

     total cpu time spent up to now is     4612.6 secs

     total energy              =   -5283.67977379 Ry
     estimated scf accuracy    <          7.1E-09 Ry

     iteration # 49     ecut=    60.00 Ry     beta= 0.30
     Davidson diagonalization with overlap
     ethr =  1.30E-12,  avg # of iterations =  1.0

     negative rho (up, down):  3.541E-02 0.000E+00

     total cpu time spent up to now is     4619.6 secs

     total energy              =   -5283.67977379 Ry
     estimated scf accuracy    <          4.3E-09 Ry

     iteration # 50     ecut=    60.00 Ry     beta= 0.30
     Davidson diagonalization with overlap
     ethr =  7.82E-13,  avg # of iterations =  1.0

     negative rho (up, down):  3.541E-02 0.000E+00

     total cpu time spent up to now is     4626.2 secs

     total energy              =   -5283.67977379 Ry
     estimated scf accuracy    <          6.2E-09 Ry

     iteration # 51     ecut=    60.00 Ry     beta= 0.30
     Davidson diagonalization with overlap
     ethr =  7.82E-13,  avg # of iterations =  1.0

     negative rho (up, down):  3.541E-02 0.000E+00

     total cpu time spent up to now is     4632.9 secs

     total energy              =   -5283.67977379 Ry
     estimated scf accuracy    <          4.8E-09 Ry

     iteration # 52     ecut=    60.00 Ry     beta= 0.30
     Davidson diagonalization with overlap
     ethr =  7.82E-13,  avg # of iterations =  1.0

     negative rho (up, down):  3.541E-02 0.000E+00

     total cpu time spent up to now is     4640.5 secs

     total energy              =   -5283.67977379 Ry
     estimated scf accuracy    <          7.5E-09 Ry

     iteration # 53     ecut=    60.00 Ry     beta= 0.30
     Davidson diagonalization with overlap
     ethr =  7.82E-13,  avg # of iterations =  1.0

     negative rho (up, down):  3.541E-02 0.000E+00

     total cpu time spent up to now is     4647.1 secs

     End of self-consistent calculation

          k = 0.0000 0.0000 0.0000 ( 46961 PWs)   bands (ev):

   -69.6858 -69.6141 -69.6047 -69.5953 -69.5891 -69.5725 -69.5428 -69.5285
   -69.5097 -69.3493 -69.3306 -62.1690 -62.1613 -62.1484 -62.1110 -62.0952
   -62.0349 -62.0271 -61.9752 -61.9094 -61.7633 -54.4353 -54.4062 -54.3010
   -54.1317 -54.1044 -54.0996 -54.0874 -54.0661 -54.0501 -54.0319 -53.9507
   -41.0953 -41.0927 -41.0846 -41.0688 -41.0449 -41.0062 -40.9985 -40.9955
   -40.9926 -40.9761 -40.9727 -40.9681 -40.9380 -40.9364 -40.9311 -40.9172
   -40.9117 -40.9108 -40.9056 -40.9024 -40.8688 -40.8622 -40.8608 -40.8475
   -40.8308 -40.7915 -40.7788 -40.7686 -40.7570 -40.7044 -40.6907 -40.6292
   -40.5708 -36.1308 -36.1068 -36.0925 -36.0856 -36.0752 -36.0565 -36.0299
   -36.0184 -36.0046 -35.9990 -35.9817 -35.9650 -35.9553 -35.9508 -35.9471
   -35.9348 -35.9213 -35.9132 -35.9030 -35.8810 -35.8734 -35.8640 -35.8353
   -35.8033 -35.7669 -35.7459 -35.6820 -35.6607 -35.6090 -35.5895 -30.8719
   -30.8237 -30.7226 -30.7029 -30.6761 -30.6603 -30.6531 -30.6273 -30.6078
   -30.5780 -30.5627 -30.5539 -30.5307 -30.5075 -30.5026 -30.4907 -30.4850
   -30.4731 -30.4529 -30.4380 -30.4140 -30.3761 -30.3547 -30.3462 -30.3399
   -30.3246 -30.3058 -30.2782 -30.2672 -30.2414 -30.2085 -30.1998 -30.1743
   -10.8181  -9.7300  -9.3546  -9.2786  -9.1739  -9.0493  -8.6552  -8.4287
    -8.3755  -8.3632  -8.3430  -8.2692  -8.2241  -8.1353  -8.0804  -7.8918
    -7.8305  -7.7900  -7.6769  -7.6253  -7.5816  -7.5572  -7.4848  -7.4075
    -7.2867  -7.2864  -7.1518  -7.0796  -7.0118  -6.9622  -6.7109  -6.4323
    -4.0499  -4.0037  -3.9509  -3.8037  -3.0754  -2.9425  -2.7598  -2.7336
    -2.7019  -2.6618  -2.6528  -2.5620  -2.5155  -2.4562  -2.4549  -2.3191
    -2.1571  -2.1272  -2.0807  -1.9320  -1.9053  -1.8871  -1.8531  -1.7597
    -1.6764  -1.5955  -1.5549  -1.5344  -1.4759  -1.4733  -1.4652  -1.4529
    -1.4441  -1.4259  -1.4121  -1.3669  -1.3474  -1.2820  -1.2682  -1.2313
    -1.2067  -1.1700  -1.1158  -1.0913  -1.0453  -0.9983  -0.9828  -0.9563
    -0.9371  -0.8762  -0.8538  -0.8114  -0.7882  -0.7678  -0.7453  -0.7221
    -0.6939  -0.6826  -0.6759  -0.6410  -0.5842  -0.4784  -0.4301  -0.3922
    -0.3459  -0.3050  -0.2703  -0.1957  -0.1798  -0.1597  -0.1485  -0.0890
    -0.0606  -0.0151   0.0301   0.0528   0.0905   0.1989   0.3524   0.3909
     0.4279   0.5600   0.5759   0.6671   0.6932   0.7606   0.8231   0.9354
     0.9660   0.9918   1.1127   1.1564   1.2098   1.2537   1.3170   1.3312
     1.4829   1.6040   1.6418   1.6976   1.7854   1.8918   1.9216   2.1446
     2.4931   2.5512   2.6387   2.6612   2.7234   2.7418   2.8450   2.8637
     2.9090   2.9887   3.0221   3.0326   3.0581   3.1317   3.1499   3.1642
     3.1993   3.2441   3.2583   3.2647   3.2932   3.3193   3.3410   3.3978
     3.4259   3.4604   3.4980   3.5188   3.5344   3.5484   3.5782   3.6227
     3.6551   3.7069   3.7778   3.8201   3.8445   3.8866   3.8970   3.9447
     3.9547   3.9970   4.0337   4.0481   4.0672   4.1011   4.1405   4.1781
     4.1990   4.2603   4.2778   4.3394   4.3760   4.4361   4.4559   4.4989
     4.5214   4.5395   4.5476   4.6447   4.6749   4.7020

     the Fermi energy is     2.8972 ev

!    total energy              =   -5283.67977379 Ry
     estimated scf accuracy    <          9.1E-10 Ry
     smearing contrib. (-TS)   =      -0.03074837 Ry
     internal energy E=F+TS    =   -5283.64902542 Ry

     The total energy is F=E-TS. E is the sum of the following terms:
     one-electron contribution =  -55961.43023051 Ry
     hartree contribution      =   28004.32626846 Ry
     xc contribution           =    -787.50897154 Ry
     ewald contribution        =   23658.56230742 Ry
     one-center paw contrib.   =    -197.59839924 Ry

     convergence has been achieved in  53 iterations

     negative rho (up, down):  3.541E-02 0.000E+00

     Forces acting on atoms (cartesian axes, Ry/au):

     atom    1 type  1   force =    -0.00178259   -0.00090237   -0.01302660
     atom    2 type  1   force =    -0.00920569   -0.00484758    0.00045105
     atom    3 type  1   force =    -0.00196293    0.00347339   -0.00023749
     atom    4 type  1   force =    -0.00045535   -0.01683999    0.03170478
     atom    5 type  1   force =    -0.00459468    0.01245111    0.00249184
     atom    6 type  1   force =     0.00858609   -0.00218892    0.02728240
     atom    7 type  1   force =    -0.00027608   -0.00170082    0.00598854
     atom    8 type  1   force =     0.00285082    0.00497980    0.00902617
     atom    9 type  1   force =    -0.00256202   -0.00407363    0.00556073
     atom   10 type  1   force =    -0.00043298   -0.00868376   -0.00859689
     atom   11 type  1   force =    -0.00213602   -0.00961265   -0.00611368
     atom   12 type  2   force =    -0.00792102   -0.01253822   -0.01939614
     atom   13 type  2   force =     0.00026289   -0.01400809   -0.00738597
     atom   14 type  2   force =     0.02335623   -0.00683133    0.00747981
     atom   15 type  2   force =    -0.00990685    0.00083868    0.11578541
     atom   16 type  2   force =     0.00644517   -0.00054576    0.09594398
     atom   17 type  2   force =     0.00063742    0.00072080    0.00217117
     atom   18 type  2   force =     0.00416851    0.00188700   -0.00727166
     atom   19 type  2   force =     0.00103656    0.00098870    0.00620823
     atom   20 type  2   force =     0.00164768   -0.01066427   -0.01144373
     atom   21 type  2   force =     0.00334492    0.01921856   -0.01799590
     atom   22 type  3   force =     0.00572383    0.00983140   -0.00542841
     atom   23 type  3   force =    -0.02186187   -0.01336575    0.00752826
     atom   24 type  3   force =     0.03218965    0.02183074   -0.01619636
     atom   25 type  3   force =     0.01365565   -0.01522329    0.07070183
     atom   26 type  3   force =    -0.00375361    0.01103148    0.12388912
     atom   27 type  3   force =    -0.00482368    0.00435999    0.00161058
     atom   28 type  3   force =    -0.00891320    0.00035321    0.03688244
     atom   29 type  3   force =    -0.00977038   -0.01260512   -0.01404891
     atom   30 type  3   force =    -0.00214112   -0.01255122   -0.00695393
     atom   31 type  3   force =     0.00785154   -0.00202756   -0.01470757
     atom   32 type  3   force =    -0.01516392   -0.00017161   -0.00830570
     atom   33 type  4   force =     0.00174901   -0.00715056   -0.03494126
     atom   34 type  4   force =     0.00971274    0.01265128   -0.00691981
     atom   35 type  4   force =    -0.00310750   -0.01756140   -0.02353325
     atom   36 type  4   force =     0.00057857    0.01131851   -0.03312198
     atom   37 type  4   force =     0.00059822    0.00143141    0.02003724
     atom   38 type  4   force =     0.00099884   -0.00478163    0.01657235
     atom   39 type  4   force =    -0.00113071   -0.00012077    0.01780040
     atom   40 type  4   force =     0.00036796   -0.00578065    0.00364589
     atom   41 type  4   force =     0.00449871    0.00849327   -0.00437672
     atom   42 type  4   force =     0.00211419    0.00945713    0.00345186
     atom   43 type  4   force =     0.00481578    0.00342201   -0.00324749
     atom   44 type  4   force =    -0.00068219    0.01018854    0.00473034
     atom   45 type  4   force =     0.00064945    0.00891779   -0.04020088
     atom   46 type  4   force =     0.00397073    0.00208040   -0.04770004
     atom   47 type  4   force =    -0.00818480   -0.00010970   -0.02423145
     atom   48 type  4   force =    -0.01573663   -0.00855490   -0.02696464
     atom   49 type  4   force =     0.00601357    0.00187166   -0.00591627
     atom   50 type  4   force =     0.00112412    0.01374605    0.00360704
     atom   51 type  4   force =     0.00174795    0.01824523   -0.00624485
     atom   52 type  4   force =     0.00085327    0.00507117    0.00688503
     atom   53 type  4   force =    -0.00172096   -0.00529006   -0.03195311
     atom   54 type  4   force =    -0.00538305    0.00976878   -0.03890833
     atom   55 type  4   force =    -0.00007628    0.00490272   -0.03808486
     atom   56 type  4   force =    -0.00080149   -0.00843187   -0.03764537
     atom   57 type  4   force =    -0.01613732    0.00906574   -0.02567277
     atom   58 type  4   force =    -0.00882501   -0.00656612   -0.03359969
     atom   59 type  4   force =     0.01467669    0.01394650   -0.03104352
     atom   60 type  4   force =     0.00208854   -0.01088201   -0.01833441
     atom   61 type  4   force =    -0.00119072   -0.00309244    0.00977175
     atom   62 type  4   force =     0.00243441   -0.00377222    0.01205313
     atom   63 type  4   force =     0.00142678   -0.00230387    0.01135085
     atom   64 type  4   force =    -0.00153582   -0.00276288    0.00913742

     Total force =     0.072104     Total SCF correction =     0.000068
     Energy error            =      3.1E-03 Ry
     Gradient error          =      2.0E-02 Ry/Bohr

     number of scf cycles    =  11
     number of bfgs steps    =  10

     energy             old  =   -5283.6766445829 Ry
     energy             new  =   -5283.6797737899 Ry

     CASE: energy            _new < energy            _old

     new trust radius        =       0.0429776984 bohr
     new conv_thr            =       0.0000000020 Ry


ATOMIC_POSITIONS (angstrom)
Ti               8.3645715140        0.0220488087       15.7964244603
Ti               0.0291331002        8.3621570543       11.5803477355    0   0   0
Ti               2.0920832669        4.2122969670       13.6824865826
Ti               8.3795041056        2.0957563981        9.4724378689    0   0   0
Ti               8.3750099733        6.2687152092        9.4933225157    0   0   0
Ti               4.2170671874        6.2898439467        9.4911460380    0   0   0
Ti               8.3695228477        2.1052035269       13.6497965699
Ti               8.3857352572        6.2652382413       13.6314741509
Ti               4.2026597018        6.2557356104       13.6246263477
Ti               2.0825379734        6.2333040387       15.8104535430
Ti               6.3291443021        6.2221668147       15.8075109165
V                8.4082670404        4.1054954914       15.6783785158
V                4.1908798001        4.0538265846       15.6549730141
V                4.1453105473        4.2119457891       11.5975026988    0   0   0
V                2.1879867013        0.0520231596        9.5054883674    0   0   0
V                2.1522427348        4.1319303501        9.4904675789    0   0   0
V                2.0867506511        8.3494942313       13.6541837170
V                6.3058284430        4.2354765711       13.7456754263
V                4.1834192034        2.1074863989       13.5787780996
V                2.1048639148        6.2714192178       11.5723879270    0   0   0
V                6.3158808164        6.1438819511       11.5700667150    0   0   0
Cr               4.2239588929       -0.1895579506       15.5558263971
Cr               0.1179128009        4.1786640750       11.5195623927    0   0   0
Cr               4.1681598842        8.2577799257       11.6615352591    0   0   0
Cr               6.1999882077        0.1106418811        9.6948923906    0   0   0
Cr               6.2007452456        4.0563627707        9.3394942948    0   0   0
Cr               6.3294893165        8.2523694125       13.5993522647
Cr               4.2149984025        2.0754774019        9.7444374941    0   0   0
Cr               2.1262084147        2.0825334892       15.5976038487
Cr               6.2203305503        2.0900939716       15.5515648938
Cr               2.0054620409        2.1149661174       11.6192682974    0   0   0
Cr               6.3992485267        2.2488278238       11.6549867199    0   0   0
C                8.3671464633        0.0123762133        9.4921945368    0   0   0
C                8.3685510870        4.1683341954        9.4949958325    0   0   0
C                4.2233794382        0.0660683478        9.5137772640    0   0   0
C                4.2071394793        4.1170355077        9.4900603783    0   0   0
C                8.3687096802       -0.0072596131       13.7468669063
C                8.3623403945        4.1735468695       13.7208614949
C                4.2202734457       -0.0226161851       13.6670671501
C                4.2183769586        4.1288643367       13.7178427264
C                2.2346229795        0.1172255622       15.9185293925
C                2.1367872761        4.1543633577       15.9068850080
C                6.1731889550        0.1065856755       15.9123797132
C                6.2696798679        4.1488708664       15.8616480977
C                2.1521326937        0.0175132539       11.5903255372    0   0   0
C                2.1078429860        4.1683083653       11.5671868517    0   0   0
C                6.2417937451        0.0188099573       11.6002801854    0   0   0
C                6.3283074126        4.1569384024       11.5682471185    0   0   0
C                8.3868756194        2.1611173938       15.9687238082
C                8.3921283534        6.2849889121       16.0390226823
C                4.2146731211        2.0861347605       15.7778648285
C                4.2066845504        6.3822261409       15.9215490264
C                0.0147673152        2.1438801594       11.5939557114    0   0   0
C                0.0200697416        6.2277703895       11.5821679336    0   0   0
C                4.2182428542        2.0594943016       11.6100232202    0   0   0
C                4.2117703951        6.2583221129       11.5919858628    0   0   0
C                2.1713130363        2.0860319016        9.4919958919    0   0   0
C                2.1164500536        6.2753611976        9.5156635851    0   0   0
C                6.2203151227        2.0809934926        9.4961719556    0   0   0
C                6.2861737462        6.2618311600        9.5257047400    0   0   0
C                2.1320958260        2.0638649484       13.7338751024
C                2.1004506903        6.2970046883       13.7338005704
C                6.2554311574        2.0725834182       13.6888633263
C                6.3075062067        6.2455067191       13.7148669532



     Writing config-only to output data dir ./tmp/hec3_CrTiV_f100_CO_clean.save/ :
     XML data file
     NEW-OLD atomic charge density approx. for the potential

     Check: negative core charge=   -0.000005

     negative rho (up, down):  3.564E-02 0.000E+00

     total cpu time spent up to now is     4657.3 secs

     Self-consistent Calculation

     iteration #  1     ecut=    60.00 Ry     beta= 0.30
     Davidson diagonalization with overlap
     ethr =  1.00E-06,  avg # of iterations = 10.0

     negative rho (up, down):  3.571E-02 0.000E+00

     total cpu time spent up to now is     4671.0 secs

     total energy              =   -5283.64240494 Ry
     estimated scf accuracy    <       0.08862045 Ry

     iteration #  2     ecut=    60.00 Ry     beta= 0.30
     Davidson diagonalization with overlap
     ethr =  1.63E-05,  avg # of iterations = 16.0

     negative rho (up, down):  3.560E-02 0.000E+00

     total cpu time spent up to now is     4687.4 secs

     total energy              =   -5283.38799695 Ry
     estimated scf accuracy    <      19.87706010 Ry

     iteration #  3     ecut=    60.00 Ry     beta= 0.30
     Davidson diagonalization with overlap
     ethr =  1.63E-05,  avg # of iterations = 18.0

     negative rho (up, down):  3.551E-02 0.000E+00

     total cpu time spent up to now is     4704.1 secs

     total energy              =   -5283.66130027 Ry
     estimated scf accuracy    <       0.87693281 Ry

     iteration #  4     ecut=    60.00 Ry     beta= 0.30
     Davidson diagonalization with overlap
     ethr =  1.63E-05,  avg # of iterations =  6.0

     negative rho (up, down):  3.554E-02 0.000E+00

     total cpu time spent up to now is     4713.4 secs

     total energy              =   -5283.67882702 Ry
     estimated scf accuracy    <       0.09839009 Ry

     iteration #  5     ecut=    60.00 Ry     beta= 0.30
     Davidson diagonalization with overlap
     ethr =  1.63E-05,  avg # of iterations =  1.0

     negative rho (up, down):  3.556E-02 0.000E+00

     total cpu time spent up to now is     4720.3 secs

     total energy              =   -5283.68162882 Ry
     estimated scf accuracy    <       0.01669455 Ry

     iteration #  6     ecut=    60.00 Ry     beta= 0.30
     Davidson diagonalization with overlap
     c_bands:  2 eigenvalues not converged
     ethr =  3.07E-06,  avg # of iterations = 20.0

     negative rho (up, down):  3.559E-02 0.000E+00

     total cpu time spent up to now is     4737.6 secs

     total energy              =   -5283.68303524 Ry
     estimated scf accuracy    <       0.00805443 Ry

     iteration #  7     ecut=    60.00 Ry     beta= 0.30
     Davidson diagonalization with overlap
     ethr =  1.48E-06,  avg # of iterations =  2.0

     negative rho (up, down):  3.560E-02 0.000E+00

     total cpu time spent up to now is     4745.1 secs

     total energy              =   -5283.68315919 Ry
     estimated scf accuracy    <       0.00448707 Ry

     iteration #  8     ecut=    60.00 Ry     beta= 0.30
     Davidson diagonalization with overlap
     ethr =  8.25E-07,  avg # of iterations =  2.0

     negative rho (up, down):  3.560E-02 0.000E+00

     total cpu time spent up to now is     4752.8 secs

     total energy              =   -5283.68324178 Ry
     estimated scf accuracy    <       0.00534703 Ry

     iteration #  9     ecut=    60.00 Ry     beta= 0.30
     Davidson diagonalization with overlap
     ethr =  8.25E-07,  avg # of iterations =  1.0

     negative rho (up, down):  3.561E-02 0.000E+00

     total cpu time spent up to now is     4760.2 secs

     total energy              =   -5283.68336731 Ry
     estimated scf accuracy    <       0.00169873 Ry

     iteration # 10     ecut=    60.00 Ry     beta= 0.30
     Davidson diagonalization with overlap
     ethr =  3.12E-07,  avg # of iterations =  2.0

     negative rho (up, down):  3.562E-02 0.000E+00

     total cpu time spent up to now is     4768.1 secs

     total energy              =   -5283.68340213 Ry
     estimated scf accuracy    <       0.00098492 Ry

     iteration # 11     ecut=    60.00 Ry     beta= 0.30
     Davidson diagonalization with overlap
     ethr =  1.81E-07,  avg # of iterations =  2.0

     negative rho (up, down):  3.563E-02 0.000E+00

     total cpu time spent up to now is     4775.8 secs

     total energy              =   -5283.68338842 Ry
     estimated scf accuracy    <       0.00184196 Ry

     iteration # 12     ecut=    60.00 Ry     beta= 0.30
     Davidson diagonalization with overlap
     ethr =  1.81E-07,  avg # of iterations =  2.0

     negative rho (up, down):  3.562E-02 0.000E+00

     total cpu time spent up to now is     4783.4 secs

     total energy              =   -5283.68324282 Ry
     estimated scf accuracy    <       0.01174044 Ry

     iteration # 13     ecut=    60.00 Ry     beta= 0.30
     Davidson diagonalization with overlap
     ethr =  1.81E-07,  avg # of iterations =  5.0

     negative rho (up, down):  3.562E-02 0.000E+00

     total cpu time spent up to now is     4792.0 secs

     total energy              =   -5283.68335548 Ry
     estimated scf accuracy    <       0.00542612 Ry

     iteration # 14     ecut=    60.00 Ry     beta= 0.30
     Davidson diagonalization with overlap
     ethr =  1.81E-07,  avg # of iterations =  5.0

     negative rho (up, down):  3.563E-02 0.000E+00

     total cpu time spent up to now is     4801.5 secs

     total energy              =   -5283.68345626 Ry
     estimated scf accuracy    <       0.00058008 Ry

     iteration # 15     ecut=    60.00 Ry     beta= 0.30
     Davidson diagonalization with overlap
     ethr =  1.07E-07,  avg # of iterations =  2.0

     negative rho (up, down):  3.563E-02 0.000E+00

     total cpu time spent up to now is     4808.8 secs

     total energy              =   -5283.68347768 Ry
     estimated scf accuracy    <       0.00006477 Ry

     iteration # 16     ecut=    60.00 Ry     beta= 0.30
     Davidson diagonalization with overlap
     ethr =  1.19E-08,  avg # of iterations =  2.0

     negative rho (up, down):  3.563E-02 0.000E+00

     total cpu time spent up to now is     4816.2 secs

     total energy              =   -5283.68347850 Ry
     estimated scf accuracy    <       0.00007744 Ry

     iteration # 17     ecut=    60.00 Ry     beta= 0.30
     Davidson diagonalization with overlap
     ethr =  1.19E-08,  avg # of iterations =  2.0

     negative rho (up, down):  3.563E-02 0.000E+00

     total cpu time spent up to now is     4823.8 secs

     total energy              =   -5283.68348029 Ry
     estimated scf accuracy    <       0.00005516 Ry

     iteration # 18     ecut=    60.00 Ry     beta= 0.30
     Davidson diagonalization with overlap
     ethr =  1.01E-08,  avg # of iterations =  2.0

     negative rho (up, down):  3.563E-02 0.000E+00

     total cpu time spent up to now is     4834.4 secs

     total energy              =   -5283.68348123 Ry
     estimated scf accuracy    <       0.00005926 Ry

     iteration # 19     ecut=    60.00 Ry     beta= 0.30
     Davidson diagonalization with overlap
     ethr =  1.01E-08,  avg # of iterations =  2.0

     negative rho (up, down):  3.563E-02 0.000E+00

     total cpu time spent up to now is     4841.8 secs

     total energy              =   -5283.68348167 Ry
     estimated scf accuracy    <       0.00004260 Ry

     iteration # 20     ecut=    60.00 Ry     beta= 0.30
     Davidson diagonalization with overlap
     ethr =  7.83E-09,  avg # of iterations =  1.0

     negative rho (up, down):  3.563E-02 0.000E+00

     total cpu time spent up to now is     4848.5 secs

     total energy              =   -5283.68348287 Ry
     estimated scf accuracy    <       0.00001330 Ry

     iteration # 21     ecut=    60.00 Ry     beta= 0.30
     Davidson diagonalization with overlap
     ethr =  2.44E-09,  avg # of iterations =  2.0

     negative rho (up, down):  3.563E-02 0.000E+00

     total cpu time spent up to now is     4856.0 secs

     total energy              =   -5283.68348231 Ry
     estimated scf accuracy    <       0.00004099 Ry

     iteration # 22     ecut=    60.00 Ry     beta= 0.30
     Davidson diagonalization with overlap
     ethr =  2.44E-09,  avg # of iterations =  1.0

     negative rho (up, down):  3.563E-02 0.000E+00

     total cpu time spent up to now is     4863.0 secs

     total energy              =   -5283.68348330 Ry
     estimated scf accuracy    <       0.00001447 Ry

     iteration # 23     ecut=    60.00 Ry     beta= 0.30
     Davidson diagonalization with overlap
     ethr =  2.44E-09,  avg # of iterations =  1.0

     negative rho (up, down):  3.563E-02 0.000E+00

     total cpu time spent up to now is     4869.6 secs

     total energy              =   -5283.68348344 Ry
     estimated scf accuracy    <       0.00002344 Ry

     iteration # 24     ecut=    60.00 Ry     beta= 0.30
     Davidson diagonalization with overlap
     ethr =  2.44E-09,  avg # of iterations =  1.0

     negative rho (up, down):  3.563E-02 0.000E+00

     total cpu time spent up to now is     4876.2 secs

     total energy              =   -5283.68348361 Ry
     estimated scf accuracy    <       0.00000723 Ry

     iteration # 25     ecut=    60.00 Ry     beta= 0.30
     Davidson diagonalization with overlap
     ethr =  1.33E-09,  avg # of iterations =  2.0

     negative rho (up, down):  3.563E-02 0.000E+00

     total cpu time spent up to now is     4883.3 secs

     total energy              =   -5283.68348336 Ry
     estimated scf accuracy    <       0.00002797 Ry

     iteration # 26     ecut=    60.00 Ry     beta= 0.30
     Davidson diagonalization with overlap
     ethr =  1.33E-09,  avg # of iterations =  1.0

     negative rho (up, down):  3.563E-02 0.000E+00

     total cpu time spent up to now is     4889.9 secs

     total energy              =   -5283.68348388 Ry
     estimated scf accuracy    <       0.00000508 Ry

     iteration # 27     ecut=    60.00 Ry     beta= 0.30
     Davidson diagonalization with overlap
     ethr =  9.34E-10,  avg # of iterations =  1.0

     negative rho (up, down):  3.563E-02 0.000E+00

     total cpu time spent up to now is     4896.6 secs

     total energy              =   -5283.68348400 Ry
     estimated scf accuracy    <       0.00000103 Ry

     iteration # 28     ecut=    60.00 Ry     beta= 0.30
     Davidson diagonalization with overlap
     ethr =  1.89E-10,  avg # of iterations =  2.0

     negative rho (up, down):  3.563E-02 0.000E+00

     total cpu time spent up to now is     4904.3 secs

     total energy              =   -5283.68348401 Ry
     estimated scf accuracy    <       0.00000129 Ry

     iteration # 29     ecut=    60.00 Ry     beta= 0.30
     Davidson diagonalization with overlap
     ethr =  1.89E-10,  avg # of iterations =  2.0

     negative rho (up, down):  3.563E-02 0.000E+00

     total cpu time spent up to now is     4912.0 secs

     total energy              =   -5283.68348400 Ry
     estimated scf accuracy    <       0.00000172 Ry

     iteration # 30     ecut=    60.00 Ry     beta= 0.30
     Davidson diagonalization with overlap
     ethr =  1.89E-10,  avg # of iterations =  2.0

     negative rho (up, down):  3.563E-02 0.000E+00

     total cpu time spent up to now is     4919.4 secs

     total energy              =   -5283.68348403 Ry
     estimated scf accuracy    <       0.00000146 Ry

     iteration # 31     ecut=    60.00 Ry     beta= 0.30
     Davidson diagonalization with overlap
     ethr =  1.89E-10,  avg # of iterations =  1.0

     negative rho (up, down):  3.563E-02 0.000E+00

     total cpu time spent up to now is     4925.8 secs

     total energy              =   -5283.68348407 Ry
     estimated scf accuracy    <       0.00000034 Ry

     iteration # 32     ecut=    60.00 Ry     beta= 0.30
     Davidson diagonalization with overlap
     ethr =  6.34E-11,  avg # of iterations =  1.0

     negative rho (up, down):  3.563E-02 0.000E+00

     total cpu time spent up to now is     4932.1 secs

     total energy              =   -5283.68348408 Ry
     estimated scf accuracy    <       0.00000030 Ry

     iteration # 33     ecut=    60.00 Ry     beta= 0.30
     Davidson diagonalization with overlap
     ethr =  5.55E-11,  avg # of iterations =  1.0

     negative rho (up, down):  3.563E-02 0.000E+00

     total cpu time spent up to now is     4938.4 secs

     total energy              =   -5283.68348408 Ry
     estimated scf accuracy    <       0.00000016 Ry

     iteration # 34     ecut=    60.00 Ry     beta= 0.30
     Davidson diagonalization with overlap
     ethr =  2.89E-11,  avg # of iterations =  1.0

     negative rho (up, down):  3.563E-02 0.000E+00

     total cpu time spent up to now is     4945.3 secs

     total energy              =   -5283.68348408 Ry
     estimated scf accuracy    <       0.00000061 Ry

     iteration # 35     ecut=    60.00 Ry     beta= 0.30
     Davidson diagonalization with overlap
     ethr =  2.89E-11,  avg # of iterations =  5.0

     negative rho (up, down):  3.563E-02 0.000E+00

     total cpu time spent up to now is     4953.8 secs

     total energy              =   -5283.68348406 Ry
     estimated scf accuracy    <       0.00000128 Ry

     iteration # 36     ecut=    60.00 Ry     beta= 0.30
     Davidson diagonalization with overlap
     ethr =  2.89E-11,  avg # of iterations =  5.0

     negative rho (up, down):  3.563E-02 0.000E+00

     total cpu time spent up to now is     4962.1 secs

     total energy              =   -5283.68348408 Ry
     estimated scf accuracy    <       0.00000054 Ry

     iteration # 37     ecut=    60.00 Ry     beta= 0.30
     Davidson diagonalization with overlap
     ethr =  2.89E-11,  avg # of iterations =  2.0

     negative rho (up, down):  3.563E-02 0.000E+00

     total cpu time spent up to now is     4969.5 secs

     total energy              =   -5283.68348409 Ry
     estimated scf accuracy    <       0.00000003 Ry

     iteration # 38     ecut=    60.00 Ry     beta= 0.30
     Davidson diagonalization with overlap
     ethr =  4.98E-12,  avg # of iterations =  5.0

     negative rho (up, down):  3.563E-02 0.000E+00

     total cpu time spent up to now is     4978.0 secs

     total energy              =   -5283.68348409 Ry
     estimated scf accuracy    <       0.00000005 Ry

     iteration # 39     ecut=    60.00 Ry     beta= 0.30
     Davidson diagonalization with overlap
     ethr =  4.98E-12,  avg # of iterations =  5.0

     negative rho (up, down):  3.563E-02 0.000E+00

     total cpu time spent up to now is     4986.8 secs

     total energy              =   -5283.68348409 Ry
     estimated scf accuracy    <       0.00000003 Ry

     iteration # 40     ecut=    60.00 Ry     beta= 0.30
     Davidson diagonalization with overlap
     ethr =  4.98E-12,  avg # of iterations =  4.0

     negative rho (up, down):  3.563E-02 0.000E+00

     total cpu time spent up to now is     4995.0 secs

     total energy              =   -5283.68348409 Ry
     estimated scf accuracy    <       0.00000007 Ry

     iteration # 41     ecut=    60.00 Ry     beta= 0.30
     Davidson diagonalization with overlap
     ethr =  4.98E-12,  avg # of iterations =  2.0

     negative rho (up, down):  3.563E-02 0.000E+00

     total cpu time spent up to now is     5002.4 secs

     total energy              =   -5283.68348409 Ry
     estimated scf accuracy    <       0.00000004 Ry

     iteration # 42     ecut=    60.00 Ry     beta= 0.30
     Davidson diagonalization with overlap
     ethr =  4.98E-12,  avg # of iterations =  1.0

     negative rho (up, down):  3.563E-02 0.000E+00

     total cpu time spent up to now is     5009.1 secs

     total energy              =   -5283.68348410 Ry
     estimated scf accuracy    <       0.00000002 Ry

     iteration # 43     ecut=    60.00 Ry     beta= 0.30
     Davidson diagonalization with overlap
     ethr =  2.92E-12,  avg # of iterations =  1.0

     negative rho (up, down):  3.563E-02 0.000E+00

     total cpu time spent up to now is     5015.6 secs

     total energy              =   -5283.68348409 Ry
     estimated scf accuracy    <          8.2E-09 Ry

     iteration # 44     ecut=    60.00 Ry     beta= 0.30
     Davidson diagonalization with overlap
     ethr =  1.52E-12,  avg # of iterations =  2.0

     negative rho (up, down):  3.563E-02 0.000E+00

     total cpu time spent up to now is     5023.0 secs

     total energy              =   -5283.68348410 Ry
     estimated scf accuracy    <       0.00000002 Ry

     iteration # 45     ecut=    60.00 Ry     beta= 0.30
     Davidson diagonalization with overlap
     ethr =  1.52E-12,  avg # of iterations =  1.0

     negative rho (up, down):  3.563E-02 0.000E+00

     total cpu time spent up to now is     5029.2 secs

     total energy              =   -5283.68348409 Ry
     estimated scf accuracy    <       0.00000004 Ry

     iteration # 46     ecut=    60.00 Ry     beta= 0.30
     Davidson diagonalization with overlap
     ethr =  1.52E-12,  avg # of iterations =  2.0

     negative rho (up, down):  3.563E-02 0.000E+00

     total cpu time spent up to now is     5036.4 secs

     total energy              =   -5283.68348409 Ry
     estimated scf accuracy    <       0.00000002 Ry

     iteration # 47     ecut=    60.00 Ry     beta= 0.30
     Davidson diagonalization with overlap
     ethr =  1.52E-12,  avg # of iterations =  1.0

     negative rho (up, down):  3.563E-02 0.000E+00

     total cpu time spent up to now is     5043.3 secs

     total energy              =   -5283.68348409 Ry
     estimated scf accuracy    <          5.8E-09 Ry

     iteration # 48     ecut=    60.00 Ry     beta= 0.30
     Davidson diagonalization with overlap
     ethr =  1.07E-12,  avg # of iterations =  1.0

     negative rho (up, down):  3.563E-02 0.000E+00

     total cpu time spent up to now is     5050.0 secs

     total energy              =   -5283.68348409 Ry
     estimated scf accuracy    <          3.0E-09 Ry

     iteration # 49     ecut=    60.00 Ry     beta= 0.30
     Davidson diagonalization with overlap
     ethr =  5.55E-13,  avg # of iterations =  1.0

     negative rho (up, down):  3.563E-02 0.000E+00

     total cpu time spent up to now is     5056.4 secs

     End of self-consistent calculation

          k = 0.0000 0.0000 0.0000 ( 46961 PWs)   bands (ev):

   -69.6885 -69.6166 -69.6071 -69.5938 -69.5892 -69.5724 -69.5261 -69.5253
   -69.4990 -69.3486 -69.3254 -62.1683 -62.1622 -62.1518 -62.1105 -62.1004
   -62.0345 -62.0278 -61.9826 -61.8643 -61.7511 -54.4358 -54.4063 -54.3010
   -54.1337 -54.1035 -54.0998 -54.0785 -54.0479 -54.0406 -54.0204 -53.9606
   -41.0977 -41.0933 -41.0847 -41.0708 -41.0434 -41.0081 -41.0017 -40.9920
   -40.9767 -40.9759 -40.9722 -40.9628 -40.9351 -40.9339 -40.9272 -40.9133
   -40.9113 -40.9082 -40.9042 -40.9023 -40.8694 -40.8617 -40.8602 -40.8460
   -40.8315 -40.7923 -40.7694 -40.7564 -40.7409 -40.7019 -40.6876 -40.6255
   -40.5705 -36.1314 -36.1079 -36.0921 -36.0859 -36.0763 -36.0589 -36.0319
   -36.0187 -36.0090 -36.0001 -35.9811 -35.9673 -35.9553 -35.9522 -35.9499
   -35.9343 -35.9221 -35.9148 -35.9031 -35.8815 -35.8749 -35.8653 -35.8100
   -35.8032 -35.7517 -35.7061 -35.6616 -35.6496 -35.5944 -35.5762 -30.8726
   -30.8240 -30.7226 -30.7031 -30.6765 -30.6603 -30.6532 -30.6240 -30.6064
   -30.5734 -30.5626 -30.5487 -30.5269 -30.5084 -30.5014 -30.4906 -30.4786
   -30.4734 -30.4498 -30.4355 -30.4084 -30.3662 -30.3473 -30.3399 -30.3281
   -30.3218 -30.3024 -30.2776 -30.2566 -30.2436 -30.2101 -30.1832 -30.1562
   -10.8151  -9.7284  -9.3518  -9.2772  -9.1716  -9.0451  -8.6519  -8.4284
    -8.3744  -8.3581  -8.3386  -8.2658  -8.2209  -8.1303  -8.0784  -7.8879
    -7.8284  -7.7854  -7.6753  -7.6220  -7.5797  -7.5555  -7.4822  -7.3936
    -7.2775  -7.2720  -7.1494  -7.0724  -7.0112  -6.9613  -6.7048  -6.4134
    -4.0473  -3.9975  -3.9445  -3.8064  -3.0765  -2.9422  -2.7553  -2.7318
    -2.7003  -2.6492  -2.6441  -2.5597  -2.5114  -2.4535  -2.4528  -2.3170
    -2.1540  -2.1256  -2.0796  -1.9315  -1.9042  -1.8873  -1.8497  -1.7614
    -1.6738  -1.5967  -1.5513  -1.5276  -1.4777  -1.4703  -1.4631  -1.4489
    -1.4417  -1.4248  -1.4121  -1.3656  -1.3467  -1.2858  -1.2696  -1.2308
    -1.2052  -1.1655  -1.1139  -1.0905  -1.0452  -0.9936  -0.9772  -0.9536
    -0.9327  -0.8724  -0.8529  -0.8025  -0.7881  -0.7524  -0.7437  -0.7159
    -0.6877  -0.6804  -0.6699  -0.6323  -0.5857  -0.4666  -0.4201  -0.3921
    -0.3368  -0.2896  -0.2619  -0.1869  -0.1664  -0.1476  -0.1309  -0.0873
    -0.0548  -0.0144   0.0293   0.0559   0.0963   0.2057   0.3517   0.3852
     0.4239   0.5689   0.5822   0.6657   0.6961   0.7663   0.8240   0.9357
     0.9704   0.9987   1.1137   1.1527   1.2147   1.2545   1.3247   1.3316
     1.4868   1.6025   1.6445   1.6974   1.7632   1.9003   1.9299   2.1471
     2.4991   2.5175   2.6281   2.6487   2.7232   2.7551   2.8472   2.8674
     2.9116   2.9922   3.0196   3.0316   3.0562   3.1345   3.1537   3.1662
     3.1952   3.2426   3.2602   3.2693   3.2950   3.3182   3.3461   3.4039
     3.4333   3.4653   3.5021   3.5231   3.5435   3.5502   3.5810   3.6305
     3.6559   3.7255   3.7775   3.8273   3.8519   3.8910   3.9022   3.9471
     3.9601   3.9987   4.0483   4.0550   4.0782   4.1109   4.1493   4.1825
     4.1982   4.2637   4.2845   4.3412   4.3744   4.4330   4.4560   4.4949
     4.5262   4.5360   4.5521   4.6699   4.6888   4.7020

     the Fermi energy is     2.8980 ev

!    total energy              =   -5283.68348409 Ry
     estimated scf accuracy    <          1.8E-09 Ry
     smearing contrib. (-TS)   =      -0.02990636 Ry
     internal energy E=F+TS    =   -5283.65357773 Ry

     The total energy is F=E-TS. E is the sum of the following terms:
     one-electron contribution =  -55933.65561090 Ry
     hartree contribution      =   27990.50561560 Ry
     xc contribution           =    -787.51624858 Ry
     ewald contribution        =   23644.61129518 Ry
     one-center paw contrib.   =    -197.59862902 Ry

     convergence has been achieved in  49 iterations

     negative rho (up, down):  3.563E-02 0.000E+00

     Forces acting on atoms (cartesian axes, Ry/au):

     atom    1 type  1   force =    -0.00378281   -0.00246237   -0.01407139
     atom    2 type  1   force =    -0.00898700   -0.00473595    0.00244380
     atom    3 type  1   force =    -0.00174467    0.00381616    0.00037072
     atom    4 type  1   force =    -0.00041629   -0.01671899    0.03179330
     atom    5 type  1   force =    -0.00458085    0.01248736    0.00266236
     atom    6 type  1   force =     0.00858778   -0.00184356    0.02738839
     atom    7 type  1   force =     0.00001179   -0.00244038    0.00054905
     atom    8 type  1   force =     0.00229692    0.00499357    0.00295363
     atom    9 type  1   force =    -0.00238968   -0.00342004    0.00513315
     atom   10 type  1   force =     0.00373190   -0.00694005   -0.00963512
     atom   11 type  1   force =    -0.00718962   -0.00594272   -0.00848160
     atom   12 type  2   force =    -0.00951586   -0.01016389   -0.01800069
     atom   13 type  2   force =    -0.00141217   -0.00536439   -0.00491835
     atom   14 type  2   force =     0.02311182   -0.00792561    0.00843486
     atom   15 type  2   force =    -0.00971996    0.00093850    0.11570738
     atom   16 type  2   force =     0.00641834   -0.00049790    0.09596457
     atom   17 type  2   force =    -0.00001779    0.00001526    0.00226217
     atom   18 type  2   force =     0.00385979    0.00315678   -0.00415990
     atom   19 type  2   force =    -0.00025844    0.00154569   -0.00290611
     atom   20 type  2   force =     0.00094712   -0.01036607   -0.01158712
     atom   21 type  2   force =     0.00356606    0.02007661   -0.01734176
     atom   22 type  3   force =     0.00480618    0.01235645   -0.00541557
     atom   23 type  3   force =    -0.02130309   -0.01333724    0.00849866
     atom   24 type  3   force =     0.03223362    0.02299745   -0.01681559
     atom   25 type  3   force =     0.01334789   -0.01549266    0.07040051
     atom   26 type  3   force =    -0.00377194    0.01093209    0.12389017
     atom   27 type  3   force =    -0.00417919    0.00420218    0.00101385
     atom   28 type  3   force =    -0.00919418    0.00018862    0.03783114
     atom   29 type  3   force =    -0.01292536   -0.01577780   -0.01287424
     atom   30 type  3   force =    -0.00214906   -0.01536913   -0.00751444
     atom   31 type  3   force =     0.00836934   -0.00218989   -0.01392606
     atom   32 type  3   force =    -0.01551435   -0.00141501   -0.00727033
     atom   33 type  4   force =     0.00178688   -0.00722241   -0.03480046
     atom   34 type  4   force =     0.00964841    0.01267300   -0.00687035
     atom   35 type  4   force =    -0.00305928   -0.01766849   -0.02334884
     atom   36 type  4   force =     0.00080730    0.01136951   -0.03292527
     atom   37 type  4   force =     0.00037460    0.00183858    0.02030430
     atom   38 type  4   force =     0.00099198   -0.00519447    0.01805663
     atom   39 type  4   force =    -0.00043483    0.00281167    0.01868121
     atom   40 type  4   force =    -0.00009725   -0.00703176    0.00162551
     atom   41 type  4   force =     0.00239583    0.01011772   -0.00311848
     atom   42 type  4   force =     0.00040210    0.00577301    0.00346806
     atom   43 type  4   force =     0.01068113    0.00247579   -0.00127827
     atom   44 type  4   force =     0.00178726    0.00477382    0.00535646
     atom   45 type  4   force =     0.00068181    0.00898342   -0.03986783
     atom   46 type  4   force =     0.00375574    0.00186511   -0.04743974
     atom   47 type  4   force =    -0.00832754   -0.00015313   -0.02357452
     atom   48 type  4   force =    -0.01535379   -0.00871510   -0.02697830
     atom   49 type  4   force =     0.00874990    0.00172397   -0.00853119
     atom   50 type  4   force =     0.00072769    0.01183545    0.00038247
     atom   51 type  4   force =     0.00457697    0.01350519   -0.00715978
     atom   52 type  4   force =     0.00211652    0.00921155    0.00459883
     atom   53 type  4   force =    -0.00197165   -0.00551065   -0.02975196
     atom   54 type  4   force =    -0.00540901    0.00958078   -0.03604432
     atom   55 type  4   force =     0.00002901    0.00395647   -0.03475487
     atom   56 type  4   force =    -0.00063891   -0.00912224   -0.03625285
     atom   57 type  4   force =    -0.01627458    0.00903860   -0.02558506
     atom   58 type  4   force =    -0.00883260   -0.00656097   -0.03380835
     atom   59 type  4   force =     0.01479000    0.01427733   -0.03087290
     atom   60 type  4   force =     0.00208614   -0.01062778   -0.01877127
     atom   61 type  4   force =    -0.00001477   -0.00319459    0.00858032
     atom   62 type  4   force =     0.00344652   -0.00420481    0.01631991
     atom   63 type  4   force =     0.00075894   -0.00243300    0.01011578
     atom   64 type  4   force =    -0.00241680   -0.00347466    0.01186568

     Total force =     0.072212     Total SCF correction =     0.000103
     Energy error            =      3.7E-03 Ry
     Gradient error          =      2.0E-02 Ry/Bohr

     number of scf cycles    =  12
     number of bfgs steps    =  11

     energy             old  =   -5283.6797737899 Ry
     energy             new  =   -5283.6834840922 Ry

     CASE: energy            _new < energy            _old

     new trust radius        =       0.0644665475 bohr
     new conv_thr            =       0.0000000020 Ry


ATOMIC_POSITIONS (angstrom)
Ti               8.3574328894        0.0256428358       15.7983330378
Ti               0.0291331002        8.3621570543       11.5803477355    0   0   0
Ti               2.0923349602        4.2135754478       13.6801181598
Ti               8.3795041056        2.0957563981        9.4724378689    0   0   0
Ti               8.3750099733        6.2687152092        9.4933225157    0   0   0
Ti               4.2170671874        6.2898439467        9.4911460380    0   0   0
Ti               8.3685489322        2.1033796164       13.6623665124
Ti               8.3888668914        6.2708326604       13.6479328263
Ti               4.2012991914        6.2500429745       13.6338610412
Ti               2.0763120060        6.2212804872       15.8163464706
Ti               6.3306141519        6.2053699012       15.8141026733
V                8.3974408243        4.0880122271       15.6737329252
V                4.1888005084        4.0242260269       15.6527581161
V                4.1453105473        4.2119457891       11.5975026988    0   0   0
V                2.1879867013        0.0520231596        9.5054883674    0   0   0
V                2.1522427348        4.1319303501        9.4904675789    0   0   0
V                2.0960754993        8.3519173360       13.6572225472
V                6.3089308549        4.2351736936       13.7310235161
V                4.1869985346        2.1050509945       13.5973548693
V                2.1048639148        6.2714192178       11.5723879270    0   0   0
V                6.3158808164        6.1438819511       11.5700667150    0   0   0
Cr               4.2389495180       -0.1774143270       15.5663785585
Cr               0.1179128009        4.1786640750       11.5195623927    0   0   0
Cr               4.1681598842        8.2577799257       11.6615352591    0   0   0
Cr               6.1999882077        0.1106418811        9.6948923906    0   0   0
Cr               6.2007452456        4.0563627707        9.3394942948    0   0   0
Cr               6.3188668374        8.2531255169       13.6019911873
Cr               4.2149984025        2.0754774019        9.7444374941    0   0   0
Cr               2.1012246468        2.0629442426       15.5950770769
Cr               6.2146882178        2.0725262230       15.5535808700
Cr               2.0054620409        2.1149661174       11.6192682974    0   0   0
Cr               6.3992485267        2.2488278238       11.6549867199    0   0   0
C                8.3671464633        0.0123762133        9.4921945368    0   0   0
C                8.3685510870        4.1683341954        9.4949958325    0   0   0
C                4.2233794382        0.0660683478        9.5137772640    0   0   0
C                4.2071394793        4.1170355077        9.4900603783    0   0   0
C                8.3680638443       -0.0059138584       13.7562376234
C                8.3633184837        4.1718677639       13.7251961296
C                4.2180913465       -0.0300777992       13.6790362167
C                4.2195066106        4.1238557015       13.7197788050
C                2.2507816212        0.1375174503       15.9082716837
C                2.1455891636        4.1709903336       15.9096883190
C                6.1773503746        0.1144743002       15.9055362591
C                6.2676567134        4.1643046442       15.8668400369
C                2.1521326937        0.0175132539       11.5903255372    0   0   0
C                2.1078429860        4.1683083653       11.5671868517    0   0   0
C                6.2417937451        0.0188099573       11.6002801854    0   0   0
C                6.3283074126        4.1569384024       11.5682471185    0   0   0
C                8.4017751092        2.1613677317       15.9688322424
C                8.3987908852        6.3083395268       16.0588158207
C                4.2207323627        2.1161567196       15.7628399124
C                4.2068495168        6.3886284535       15.9396366883
C                0.0147673152        2.1438801594       11.5939557114    0   0   0
C                0.0200697416        6.2277703895       11.5821679336    0   0   0
C                4.2182428542        2.0594943016       11.6100232202    0   0   0
C                4.2117703951        6.2583221129       11.5919858628    0   0   0
C                2.1713130363        2.0860319016        9.4919958919    0   0   0
C                2.1164500536        6.2753611976        9.5156635851    0   0   0
C                6.2203151227        2.0809934926        9.4961719556    0   0   0
C                6.2861737462        6.2618311600        9.5257047400    0   0   0
C                2.1252989377        2.0601330537       13.7400843957
C                2.1000660512        6.2949465195       13.7344169701
C                6.2571959515        2.0684792339       13.6973979631
C                6.3086839083        6.2428359633       13.7155639531



     Writing config-only to output data dir ./tmp/hec3_CrTiV_f100_CO_clean.save/ :
     XML data file
     NEW-OLD atomic charge density approx. for the potential

     Check: negative core charge=   -0.000005

     negative rho (up, down):  3.549E-02 0.000E+00

     total cpu time spent up to now is     5066.4 secs

     Self-consistent Calculation

     iteration #  1     ecut=    60.00 Ry     beta= 0.30
     Davidson diagonalization with overlap
     ethr =  1.00E-06,  avg # of iterations =  9.0

     negative rho (up, down):  3.548E-02 0.000E+00

     total cpu time spent up to now is     5080.6 secs

     total energy              =   -5283.62760718 Ry
     estimated scf accuracy    <       0.13399118 Ry

     iteration #  2     ecut=    60.00 Ry     beta= 0.30
     Davidson diagonalization with overlap
     ethr =  2.46E-05,  avg # of iterations = 18.0

     negative rho (up, down):  3.541E-02 0.000E+00

     total cpu time spent up to now is     5096.9 secs

     total energy              =   -5283.27218952 Ry
     estimated scf accuracy    <      25.69556437 Ry

     iteration #  3     ecut=    60.00 Ry     beta= 0.30
     Davidson diagonalization with overlap
     ethr =  2.46E-05,  avg # of iterations = 16.0

     negative rho (up, down):  3.530E-02 0.000E+00

     total cpu time spent up to now is     5112.0 secs

     total energy              =   -5283.65468592 Ry
     estimated scf accuracy    <       1.17766316 Ry

     iteration #  4     ecut=    60.00 Ry     beta= 0.30
     Davidson diagonalization with overlap
     ethr =  2.46E-05,  avg # of iterations =  6.0

     negative rho (up, down):  3.533E-02 0.000E+00

     total cpu time spent up to now is     5120.9 secs

     total energy              =   -5283.68001307 Ry
     estimated scf accuracy    <       0.18012272 Ry

     iteration #  5     ecut=    60.00 Ry     beta= 0.30
     Davidson diagonalization with overlap
     ethr =  2.46E-05,  avg # of iterations =  2.0

     negative rho (up, down):  3.534E-02 0.000E+00

     total cpu time spent up to now is     5128.2 secs

     total energy              =   -5283.68491441 Ry
     estimated scf accuracy    <       0.03962793 Ry

     iteration #  6     ecut=    60.00 Ry     beta= 0.30
     Davidson diagonalization with overlap
     c_bands:  1 eigenvalues not converged
     ethr =  7.28E-06,  avg # of iterations = 20.0

     negative rho (up, down):  3.539E-02 0.000E+00

     total cpu time spent up to now is     5143.3 secs

     total energy              =   -5283.68673676 Ry
     estimated scf accuracy    <       0.02472184 Ry

     iteration #  7     ecut=    60.00 Ry     beta= 0.30
     Davidson diagonalization with overlap
     ethr =  4.54E-06,  avg # of iterations =  7.0

     negative rho (up, down):  3.541E-02 0.000E+00

     total cpu time spent up to now is     5152.9 secs

     total energy              =   -5283.68748704 Ry
     estimated scf accuracy    <       0.00828158 Ry

     iteration #  8     ecut=    60.00 Ry     beta= 0.30
     Davidson diagonalization with overlap
     ethr =  1.52E-06,  avg # of iterations = 10.0

     negative rho (up, down):  3.541E-02 0.000E+00

     total cpu time spent up to now is     5164.1 secs

     total energy              =   -5283.68750819 Ry
     estimated scf accuracy    <       0.01997210 Ry

     iteration #  9     ecut=    60.00 Ry     beta= 0.30
     Davidson diagonalization with overlap
     ethr =  1.52E-06,  avg # of iterations =  2.0

     negative rho (up, down):  3.542E-02 0.000E+00

     total cpu time spent up to now is     5171.3 secs

     total energy              =   -5283.68795880 Ry
     estimated scf accuracy    <       0.00443111 Ry

     iteration # 10     ecut=    60.00 Ry     beta= 0.30
     Davidson diagonalization with overlap
     ethr =  8.15E-07,  avg # of iterations =  2.0

     negative rho (up, down):  3.543E-02 0.000E+00

     total cpu time spent up to now is     5178.4 secs

     total energy              =   -5283.68801322 Ry
     estimated scf accuracy    <       0.00386352 Ry

     iteration # 11     ecut=    60.00 Ry     beta= 0.30
     Davidson diagonalization with overlap
     ethr =  7.10E-07,  avg # of iterations =  2.0

     negative rho (up, down):  3.543E-02 0.000E+00

     total cpu time spent up to now is     5185.6 secs

     total energy              =   -5283.68805184 Ry
     estimated scf accuracy    <       0.00290540 Ry

     iteration # 12     ecut=    60.00 Ry     beta= 0.30
     Davidson diagonalization with overlap
     ethr =  5.34E-07,  avg # of iterations =  2.0

     negative rho (up, down):  3.544E-02 0.000E+00

     total cpu time spent up to now is     5192.8 secs

     total energy              =   -5283.68773324 Ry
     estimated scf accuracy    <       0.02288337 Ry

     iteration # 13     ecut=    60.00 Ry     beta= 0.30
     Davidson diagonalization with overlap
     ethr =  5.34E-07,  avg # of iterations =  5.0

     negative rho (up, down):  3.543E-02 0.000E+00

     total cpu time spent up to now is     5201.4 secs

     total energy              =   -5283.68782962 Ry
     estimated scf accuracy    <       0.01628796 Ry

     iteration # 14     ecut=    60.00 Ry     beta= 0.30
     Davidson diagonalization with overlap
     ethr =  5.34E-07,  avg # of iterations =  5.0

     negative rho (up, down):  3.544E-02 0.000E+00

     total cpu time spent up to now is     5209.9 secs

     total energy              =   -5283.68814062 Ry
     estimated scf accuracy    <       0.00257081 Ry

     iteration # 15     ecut=    60.00 Ry     beta= 0.30
     Davidson diagonalization with overlap
     ethr =  4.73E-07,  avg # of iterations =  1.0

     negative rho (up, down):  3.544E-02 0.000E+00

     total cpu time spent up to now is     5216.6 secs

     total energy              =   -5283.68822590 Ry
     estimated scf accuracy    <       0.00017357 Ry

     iteration # 16     ecut=    60.00 Ry     beta= 0.30
     Davidson diagonalization with overlap
     ethr =  3.19E-08,  avg # of iterations =  6.0

     negative rho (up, down):  3.544E-02 0.000E+00

     total cpu time spent up to now is     5226.1 secs

     total energy              =   -5283.68823413 Ry
     estimated scf accuracy    <       0.00007565 Ry

     iteration # 17     ecut=    60.00 Ry     beta= 0.30
     Davidson diagonalization with overlap
     ethr =  1.39E-08,  avg # of iterations =  6.0

     negative rho (up, down):  3.545E-02 0.000E+00

     total cpu time spent up to now is     5235.0 secs

     total energy              =   -5283.68822929 Ry
     estimated scf accuracy    <       0.00035551 Ry

     iteration # 18     ecut=    60.00 Ry     beta= 0.30
     Davidson diagonalization with overlap
     ethr =  1.39E-08,  avg # of iterations =  5.0

     negative rho (up, down):  3.544E-02 0.000E+00

     total cpu time spent up to now is     5243.4 secs

     total energy              =   -5283.68823499 Ry
     estimated scf accuracy    <       0.00020579 Ry

     iteration # 19     ecut=    60.00 Ry     beta= 0.30
     Davidson diagonalization with overlap
     ethr =  1.39E-08,  avg # of iterations =  2.0

     negative rho (up, down):  3.544E-02 0.000E+00

     total cpu time spent up to now is     5250.7 secs

     total energy              =   -5283.68824102 Ry
     estimated scf accuracy    <       0.00005481 Ry

     iteration # 20     ecut=    60.00 Ry     beta= 0.30
     Davidson diagonalization with overlap
     ethr =  1.01E-08,  avg # of iterations =  2.0

     negative rho (up, down):  3.544E-02 0.000E+00

     total cpu time spent up to now is     5257.9 secs

     total energy              =   -5283.68824067 Ry
     estimated scf accuracy    <       0.00004798 Ry

     iteration # 21     ecut=    60.00 Ry     beta= 0.30
     Davidson diagonalization with overlap
     ethr =  8.82E-09,  avg # of iterations =  3.0

     negative rho (up, down):  3.544E-02 0.000E+00

     total cpu time spent up to now is     5265.4 secs

     total energy              =   -5283.68823801 Ry
     estimated scf accuracy    <       0.00018409 Ry

     iteration # 22     ecut=    60.00 Ry     beta= 0.30
     Davidson diagonalization with overlap
     ethr =  8.82E-09,  avg # of iterations =  2.0

     negative rho (up, down):  3.544E-02 0.000E+00

     total cpu time spent up to now is     5272.7 secs

     total energy              =   -5283.68824093 Ry
     estimated scf accuracy    <       0.00012767 Ry

     iteration # 23     ecut=    60.00 Ry     beta= 0.30
     Davidson diagonalization with overlap
     ethr =  8.82E-09,  avg # of iterations =  1.0

     negative rho (up, down):  3.544E-02 0.000E+00

     total cpu time spent up to now is     5279.6 secs

     total energy              =   -5283.68824277 Ry
     estimated scf accuracy    <       0.00005508 Ry

     iteration # 24     ecut=    60.00 Ry     beta= 0.30
     Davidson diagonalization with overlap
     ethr =  8.82E-09,  avg # of iterations =  1.0

     negative rho (up, down):  3.544E-02 0.000E+00

     total cpu time spent up to now is     5286.3 secs

     total energy              =   -5283.68824235 Ry
     estimated scf accuracy    <       0.00011065 Ry

     iteration # 25     ecut=    60.00 Ry     beta= 0.30
     Davidson diagonalization with overlap
     ethr =  8.82E-09,  avg # of iterations =  1.0

     negative rho (up, down):  3.544E-02 0.000E+00

     total cpu time spent up to now is     5293.2 secs

     total energy              =   -5283.68824385 Ry
     estimated scf accuracy    <       0.00001221 Ry

     iteration # 26     ecut=    60.00 Ry     beta= 0.30
     Davidson diagonalization with overlap
     ethr =  2.24E-09,  avg # of iterations =  2.0

     negative rho (up, down):  3.544E-02 0.000E+00

     total cpu time spent up to now is     5300.2 secs

     total energy              =   -5283.68824422 Ry
     estimated scf accuracy    <       0.00002603 Ry

     iteration # 27     ecut=    60.00 Ry     beta= 0.30
     Davidson diagonalization with overlap
     ethr =  2.24E-09,  avg # of iterations =  1.0

     negative rho (up, down):  3.544E-02 0.000E+00

     total cpu time spent up to now is     5306.8 secs

     total energy              =   -5283.68824476 Ry
     estimated scf accuracy    <       0.00000427 Ry

     iteration # 28     ecut=    60.00 Ry     beta= 0.30
     Davidson diagonalization with overlap
     ethr =  7.84E-10,  avg # of iterations =  2.0

     negative rho (up, down):  3.544E-02 0.000E+00

     total cpu time spent up to now is     5314.2 secs

     total energy              =   -5283.68824483 Ry
     estimated scf accuracy    <       0.00000394 Ry

     iteration # 29     ecut=    60.00 Ry     beta= 0.30
     Davidson diagonalization with overlap
     ethr =  7.24E-10,  avg # of iterations =  1.0

     negative rho (up, down):  3.544E-02 0.000E+00

     total cpu time spent up to now is     5320.9 secs

     total energy              =   -5283.68824484 Ry
     estimated scf accuracy    <       0.00000392 Ry

     iteration # 30     ecut=    60.00 Ry     beta= 0.30
     Davidson diagonalization with overlap
     ethr =  7.20E-10,  avg # of iterations =  1.0

     negative rho (up, down):  3.544E-02 0.000E+00

     total cpu time spent up to now is     5327.4 secs

     total energy              =   -5283.68824491 Ry
     estimated scf accuracy    <       0.00000411 Ry

     iteration # 31     ecut=    60.00 Ry     beta= 0.30
     Davidson diagonalization with overlap
     ethr =  7.20E-10,  avg # of iterations =  1.0

     negative rho (up, down):  3.544E-02 0.000E+00

     total cpu time spent up to now is     5334.0 secs

     total energy              =   -5283.68824500 Ry
     estimated scf accuracy    <       0.00000169 Ry

     iteration # 32     ecut=    60.00 Ry     beta= 0.30
     Davidson diagonalization with overlap
     ethr =  3.11E-10,  avg # of iterations =  1.0

     negative rho (up, down):  3.544E-02 0.000E+00

     total cpu time spent up to now is     5340.7 secs

     total energy              =   -5283.68824501 Ry
     estimated scf accuracy    <       0.00000179 Ry

     iteration # 33     ecut=    60.00 Ry     beta= 0.30
     Davidson diagonalization with overlap
     ethr =  3.11E-10,  avg # of iterations =  2.0

     negative rho (up, down):  3.544E-02 0.000E+00

     total cpu time spent up to now is     5347.7 secs

     total energy              =   -5283.68824496 Ry
     estimated scf accuracy    <       0.00000726 Ry

     iteration # 34     ecut=    60.00 Ry     beta= 0.30
     Davidson diagonalization with overlap
     ethr =  3.11E-10,  avg # of iterations =  1.0

     negative rho (up, down):  3.544E-02 0.000E+00

     total cpu time spent up to now is     5353.9 secs

     total energy              =   -5283.68824507 Ry
     estimated scf accuracy    <       0.00000042 Ry

     iteration # 35     ecut=    60.00 Ry     beta= 0.30
     Davidson diagonalization with overlap
     ethr =  7.68E-11,  avg # of iterations =  2.0

     negative rho (up, down):  3.544E-02 0.000E+00

     total cpu time spent up to now is     5361.0 secs

     total energy              =   -5283.68824506 Ry
     estimated scf accuracy    <       0.00000108 Ry

     iteration # 36     ecut=    60.00 Ry     beta= 0.30
     Davidson diagonalization with overlap
     ethr =  7.68E-11,  avg # of iterations =  2.0

     negative rho (up, down):  3.544E-02 0.000E+00

     total cpu time spent up to now is     5368.1 secs

     total energy              =   -5283.68824504 Ry
     estimated scf accuracy    <       0.00000173 Ry

     iteration # 37     ecut=    60.00 Ry     beta= 0.30
     Davidson diagonalization with overlap
     ethr =  7.68E-11,  avg # of iterations =  2.0

     negative rho (up, down):  3.544E-02 0.000E+00

     total cpu time spent up to now is     5375.1 secs

     total energy              =   -5283.68824509 Ry
     estimated scf accuracy    <       0.00000037 Ry

     iteration # 38     ecut=    60.00 Ry     beta= 0.30
     Davidson diagonalization with overlap
     ethr =  6.84E-11,  avg # of iterations =  1.0

     negative rho (up, down):  3.544E-02 0.000E+00

     total cpu time spent up to now is     5381.9 secs

     total energy              =   -5283.68824510 Ry
     estimated scf accuracy    <       0.00000009 Ry

     iteration # 39     ecut=    60.00 Ry     beta= 0.30
     Davidson diagonalization with overlap
     ethr =  1.74E-11,  avg # of iterations =  2.0

     negative rho (up, down):  3.544E-02 0.000E+00

     total cpu time spent up to now is     5389.2 secs

     total energy              =   -5283.68824510 Ry
     estimated scf accuracy    <       0.00000008 Ry

     iteration # 40     ecut=    60.00 Ry     beta= 0.30
     Davidson diagonalization with overlap
     ethr =  1.51E-11,  avg # of iterations =  2.0

     negative rho (up, down):  3.544E-02 0.000E+00

     total cpu time spent up to now is     5396.2 secs

     total energy              =   -5283.68824510 Ry
     estimated scf accuracy    <       0.00000015 Ry

     iteration # 41     ecut=    60.00 Ry     beta= 0.30
     Davidson diagonalization with overlap
     ethr =  1.51E-11,  avg # of iterations =  2.0

     negative rho (up, down):  3.544E-02 0.000E+00

     total cpu time spent up to now is     5403.1 secs

     total energy              =   -5283.68824510 Ry
     estimated scf accuracy    <       0.00000013 Ry

     iteration # 42     ecut=    60.00 Ry     beta= 0.30
     Davidson diagonalization with overlap
     ethr =  1.51E-11,  avg # of iterations =  2.0

     negative rho (up, down):  3.544E-02 0.000E+00

     total cpu time spent up to now is     5410.3 secs

     total energy              =   -5283.68824510 Ry
     estimated scf accuracy    <       0.00000012 Ry

     iteration # 43     ecut=    60.00 Ry     beta= 0.30
     Davidson diagonalization with overlap
     ethr =  1.51E-11,  avg # of iterations =  1.0

     negative rho (up, down):  3.544E-02 0.000E+00

     total cpu time spent up to now is     5417.1 secs

     total energy              =   -5283.68824511 Ry
     estimated scf accuracy    <       0.00000001 Ry

     iteration # 44     ecut=    60.00 Ry     beta= 0.30
     Davidson diagonalization with overlap
     ethr =  2.57E-12,  avg # of iterations =  2.0

     negative rho (up, down):  3.544E-02 0.000E+00

     total cpu time spent up to now is     5424.4 secs

     total energy              =   -5283.68824511 Ry
     estimated scf accuracy    <       0.00000008 Ry

     iteration # 45     ecut=    60.00 Ry     beta= 0.30
     Davidson diagonalization with overlap
     ethr =  2.57E-12,  avg # of iterations =  2.0

     negative rho (up, down):  3.544E-02 0.000E+00

     total cpu time spent up to now is     5432.8 secs

     total energy              =   -5283.68824511 Ry
     estimated scf accuracy    <       0.00000004 Ry

     iteration # 46     ecut=    60.00 Ry     beta= 0.30
     Davidson diagonalization with overlap
     ethr =  2.57E-12,  avg # of iterations =  1.0

     negative rho (up, down):  3.544E-02 0.000E+00

     total cpu time spent up to now is     5439.5 secs

     total energy              =   -5283.68824511 Ry
     estimated scf accuracy    <       0.00000002 Ry

     iteration # 47     ecut=    60.00 Ry     beta= 0.30
     Davidson diagonalization with overlap
     ethr =  2.57E-12,  avg # of iterations =  5.0

     negative rho (up, down):  3.544E-02 0.000E+00

     total cpu time spent up to now is     5448.1 secs

     total energy              =   -5283.68824511 Ry
     estimated scf accuracy    <       0.00000011 Ry

     iteration # 48     ecut=    60.00 Ry     beta= 0.30
     Davidson diagonalization with overlap
     ethr =  2.57E-12,  avg # of iterations =  5.0

     negative rho (up, down):  3.544E-02 0.000E+00

     total cpu time spent up to now is     5456.5 secs

     total energy              =   -5283.68824511 Ry
     estimated scf accuracy    <          4.7E-09 Ry

     iteration # 49     ecut=    60.00 Ry     beta= 0.30
     Davidson diagonalization with overlap
     ethr =  8.66E-13,  avg # of iterations =  5.0

     negative rho (up, down):  3.544E-02 0.000E+00

     total cpu time spent up to now is     5465.0 secs

     total energy              =   -5283.68824511 Ry
     estimated scf accuracy    <          4.0E-09 Ry

     iteration # 50     ecut=    60.00 Ry     beta= 0.30
     Davidson diagonalization with overlap
     ethr =  7.43E-13,  avg # of iterations =  1.0

     negative rho (up, down):  3.544E-02 0.000E+00

     total cpu time spent up to now is     5471.8 secs

     total energy              =   -5283.68824511 Ry
     estimated scf accuracy    <          4.4E-09 Ry

     iteration # 51     ecut=    60.00 Ry     beta= 0.30
     Davidson diagonalization with overlap
     ethr =  7.43E-13,  avg # of iterations =  2.0

     negative rho (up, down):  3.544E-02 0.000E+00

     total cpu time spent up to now is     5479.2 secs

     total energy              =   -5283.68824511 Ry
     estimated scf accuracy    <          5.1E-09 Ry

     iteration # 52     ecut=    60.00 Ry     beta= 0.30
     Davidson diagonalization with overlap
     ethr =  7.43E-13,  avg # of iterations =  1.0

     negative rho (up, down):  3.544E-02 0.000E+00

     total cpu time spent up to now is     5485.7 secs

     total energy              =   -5283.68824511 Ry
     estimated scf accuracy    <          4.5E-09 Ry

     iteration # 53     ecut=    60.00 Ry     beta= 0.30
     Davidson diagonalization with overlap
     ethr =  7.43E-13,  avg # of iterations =  1.0

     negative rho (up, down):  3.544E-02 0.000E+00

     total cpu time spent up to now is     5492.1 secs

     End of self-consistent calculation

          k = 0.0000 0.0000 0.0000 ( 46961 PWs)   bands (ev):

   -69.6775 -69.6071 -69.5936 -69.5777 -69.5746 -69.5602 -69.5285 -69.5100
   -69.5070 -69.3733 -69.3358 -62.1533 -62.1515 -62.1486 -62.1067 -62.0966
   -62.0242 -62.0162 -61.9932 -61.8265 -61.7461 -54.4225 -54.3932 -54.2889
   -54.1272 -54.1024 -54.0933 -54.0743 -54.0404 -54.0267 -54.0080 -53.9713
   -41.0846 -41.0787 -41.0694 -41.0568 -41.0281 -40.9986 -40.9932 -40.9779
   -40.9663 -40.9625 -40.9588 -40.9561 -40.9299 -40.9197 -40.9187 -40.9173
   -40.9018 -40.8991 -40.8889 -40.8878 -40.8738 -40.8575 -40.8446 -40.8294
   -40.8200 -40.8040 -40.7820 -40.7814 -40.7646 -40.7332 -40.6869 -40.6769
   -40.5576 -36.1241 -36.1009 -36.0783 -36.0755 -36.0668 -36.0566 -36.0278
   -36.0085 -36.0054 -35.9942 -35.9682 -35.9662 -35.9521 -35.9468 -35.9416
   -35.9259 -35.9210 -35.9066 -35.8965 -35.8706 -35.8693 -35.8596 -35.7949
   -35.7869 -35.7394 -35.6835 -35.6573 -35.6320 -35.5900 -35.5770 -30.8591
   -30.8102 -30.7107 -30.6902 -30.6637 -30.6478 -30.6402 -30.6182 -30.5966
   -30.5668 -30.5512 -30.5431 -30.5210 -30.5028 -30.4920 -30.4875 -30.4728
   -30.4690 -30.4432 -30.4292 -30.3998 -30.3627 -30.3414 -30.3366 -30.3230
   -30.3152 -30.2984 -30.2769 -30.2545 -30.2417 -30.2092 -30.1789 -30.1451
   -10.8059  -9.7355  -9.3403  -9.2691  -9.1608  -9.0338  -8.6458  -8.4360
    -8.3798  -8.3672  -8.3347  -8.2518  -8.2161  -8.1215  -8.0683  -7.8746
    -7.8175  -7.7735  -7.6649  -7.6094  -7.5663  -7.5456  -7.4718  -7.4024
    -7.3040  -7.2851  -7.1802  -7.0895  -7.0020  -6.9523  -6.7301  -6.4148
    -4.0418  -3.9838  -3.9318  -3.8090  -3.0775  -2.9378  -2.7549  -2.7324
    -2.6994  -2.6436  -2.6378  -2.5549  -2.5008  -2.4468  -2.4434  -2.3097
    -2.1460  -2.1229  -2.0741  -1.9272  -1.9036  -1.8839  -1.8363  -1.7647
    -1.6678  -1.6068  -1.5432  -1.5197  -1.4807  -1.4630  -1.4495  -1.4363
    -1.4284  -1.4177  -1.4070  -1.3621  -1.3493  -1.2952  -1.2812  -1.2286
    -1.2015  -1.1678  -1.1178  -1.0939  -1.0464  -0.9849  -0.9779  -0.9512
    -0.9338  -0.8684  -0.8559  -0.7955  -0.7818  -0.7540  -0.7367  -0.7080
    -0.6830  -0.6761  -0.6706  -0.6337  -0.5981  -0.4546  -0.4184  -0.3936
    -0.3409  -0.2845  -0.2618  -0.1876  -0.1700  -0.1434  -0.1131  -0.0875
    -0.0519  -0.0179   0.0284   0.0473   0.0971   0.2070   0.3382   0.3689
     0.4108   0.5633   0.5802   0.6592   0.6915   0.7509   0.8209   0.9372
     0.9679   0.9950   1.1082   1.1588   1.2316   1.2535   1.3349   1.3445
     1.4900   1.5988   1.6473   1.7010   1.7340   1.9041   1.9348   2.1438
     2.3771   2.5383   2.6132   2.6589   2.7371   2.7818   2.8584   2.8717
     2.9266   3.0081   3.0219   3.0375   3.0617   3.1449   3.1684   3.1739
     3.1947   3.2433   3.2632   3.2814   3.3022   3.3263   3.3575   3.4110
     3.4384   3.4671   3.5106   3.5284   3.5491   3.5524   3.5834   3.6467
     3.6534   3.7456   3.7827   3.8396   3.8644   3.8982   3.9068   3.9492
     3.9693   4.0043   4.0586   4.0766   4.0922   4.1244   4.1565   4.1897
     4.2014   4.2650   4.2883   4.3466   4.3754   4.4266   4.4617   4.4965
     4.5239   4.5427   4.5645   4.6940   4.6998   4.7284

     the Fermi energy is     2.9102 ev

!    total energy              =   -5283.68824511 Ry
     estimated scf accuracy    <          1.2E-09 Ry
     smearing contrib. (-TS)   =      -0.03312017 Ry
     internal energy E=F+TS    =   -5283.65512494 Ry

     The total energy is F=E-TS. E is the sum of the following terms:
     one-electron contribution =  -55908.37759543 Ry
     hartree contribution      =   27977.96049102 Ry
     xc contribution           =    -787.54831781 Ry
     ewald contribution        =   23631.91025618 Ry
     one-center paw contrib.   =    -197.59995890 Ry

     convergence has been achieved in  53 iterations

     negative rho (up, down):  3.544E-02 0.000E+00

     Forces acting on atoms (cartesian axes, Ry/au):

     atom    1 type  1   force =    -0.00489682   -0.00549096   -0.01127425
     atom    2 type  1   force =    -0.00871689   -0.00458375    0.00625577
     atom    3 type  1   force =    -0.00128968    0.00261739    0.00114606
     atom    4 type  1   force =    -0.00032769   -0.01644344    0.03180452
     atom    5 type  1   force =    -0.00457795    0.01253063    0.00276165
     atom    6 type  1   force =     0.00862897   -0.00138381    0.02749025
     atom    7 type  1   force =     0.00013944   -0.00332235   -0.00845248
     atom    8 type  1   force =     0.00082801    0.00327064   -0.00726376
     atom    9 type  1   force =    -0.00116156   -0.00028430    0.00327963
     atom   10 type  1   force =     0.01124217    0.00100326   -0.01001812
     atom   11 type  1   force =    -0.01458289    0.00417616   -0.01074946
     atom   12 type  2   force =    -0.01033828   -0.00116788   -0.00873450
     atom   13 type  2   force =    -0.00325808    0.01878824    0.00081011
     atom   14 type  2   force =     0.02267667   -0.00902019    0.00961230
     atom   15 type  2   force =    -0.00941587    0.00131709    0.11517314
     atom   16 type  2   force =     0.00655823   -0.00050301    0.09585629
     atom   17 type  2   force =    -0.00070284   -0.00077465    0.00147452
     atom   18 type  2   force =     0.00248716    0.00383922    0.00193182
     atom   19 type  2   force =    -0.00257763    0.00140954   -0.01675043
     atom   20 type  2   force =     0.00029569   -0.00952377   -0.01143106
     atom   21 type  2   force =     0.00381878    0.02234071   -0.01547659
     atom   22 type  3   force =    -0.00143768    0.00897800   -0.00306655
     atom   23 type  3   force =    -0.02085670   -0.01301501    0.01004045
     atom   24 type  3   force =     0.03207052    0.02391165   -0.01813922
     atom   25 type  3   force =     0.01303974   -0.01577793    0.06969065
     atom   26 type  3   force =    -0.00378404    0.01067693    0.12414368
     atom   27 type  3   force =    -0.00188367    0.00283677   -0.00088086
     atom   28 type  3   force =    -0.00951515   -0.00029761    0.03793587
     atom   29 type  3   force =    -0.01059618   -0.01175220   -0.00669037
     atom   30 type  3   force =     0.00124382   -0.01344716   -0.00597476
     atom   31 type  3   force =     0.00908616   -0.00264664   -0.01336029
     atom   32 type  3   force =    -0.01562472   -0.00433448   -0.00581514
     atom   33 type  4   force =     0.00186441   -0.00738159   -0.03397173
     atom   34 type  4   force =     0.00960791    0.01271260   -0.00630277
     atom   35 type  4   force =    -0.00304298   -0.01769199   -0.02214026
     atom   36 type  4   force =     0.00104375    0.01140398   -0.03268579
     atom   37 type  4   force =    -0.00001620    0.00156681    0.01434412
     atom   38 type  4   force =     0.00054043   -0.00422937    0.01518155
     atom   39 type  4   force =     0.00111117    0.00600491    0.01537448
     atom   40 type  4   force =    -0.00095592   -0.00696039   -0.00224827
     atom   41 type  4   force =    -0.00282786    0.00732383    0.00026389
     atom   42 type  4   force =    -0.00385454   -0.00461715    0.00235434
     atom   43 type  4   force =     0.01711626    0.00004201    0.00279417
     atom   44 type  4   force =     0.00639830   -0.00839021    0.00497170
     atom   45 type  4   force =     0.00108229    0.00879872   -0.03876119
     atom   46 type  4   force =     0.00339667    0.00154410   -0.04697109
     atom   47 type  4   force =    -0.00895307   -0.00035299   -0.02190842
     atom   48 type  4   force =    -0.01481238   -0.00861490   -0.02667841
     atom   49 type  4   force =     0.01025902   -0.00125537   -0.00997609
     atom   50 type  4   force =    -0.00128585    0.00577487   -0.00359701
     atom   51 type  4   force =     0.00678413   -0.00618482   -0.00460301
     atom   52 type  4   force =     0.00465063    0.01632523   -0.00000943
     atom   53 type  4   force =    -0.00224614   -0.00601604   -0.02718260
     atom   54 type  4   force =    -0.00544977    0.00925139   -0.03086637
     atom   55 type  4   force =     0.00020307    0.00261749   -0.03027570
     atom   56 type  4   force =    -0.00060751   -0.00996856   -0.03285089
     atom   57 type  4   force =    -0.01652524    0.00887461   -0.02518202
     atom   58 type  4   force =    -0.00892889   -0.00666221   -0.03366623
     atom   59 type  4   force =     0.01491662    0.01473877   -0.03054314
     atom   60 type  4   force =     0.00215053   -0.01031062   -0.01933742
     atom   61 type  4   force =     0.00175332   -0.00267815    0.00326771
     atom   62 type  4   force =     0.00400509   -0.00360193    0.01885779
     atom   63 type  4   force =    -0.00079101   -0.00235126    0.00429112
     atom   64 type  4   force =    -0.00315731   -0.00363885    0.01272808

     Total force =     0.070678     Total SCF correction =     0.000132
     Energy error            =      4.8E-03 Ry
     Gradient error          =      1.9E-02 Ry/Bohr

     number of scf cycles    =  13
     number of bfgs steps    =  12

     energy             old  =   -5283.6834840922 Ry
     energy             new  =   -5283.6882451089 Ry

     CASE: energy            _new < energy            _old

     new trust radius        =       0.0661161490 bohr
     new conv_thr            =       0.0000000019 Ry


ATOMIC_POSITIONS (angstrom)
Ti               8.3550142494        0.0266272396       15.7919080419
Ti               0.0291331002        8.3621570543       11.5803477355    0   0   0
Ti               2.0917228940        4.2133388228       13.6786116283
Ti               8.3795041056        2.0957563981        9.4724378689    0   0   0
Ti               8.3750099733        6.2687152092        9.4933225157    0   0   0
Ti               4.2170671874        6.2898439467        9.4911460380    0   0   0
Ti               8.3686923637        2.0993355626       13.6647085413
Ti               8.3900378777        6.2744055049       13.6548329698
Ti               4.2004467570        6.2489059945       13.6424475474
Ti               2.0825794114        6.2216238753       15.8114595753
Ti               6.3200831503        6.2080983897       15.8084239163
V                8.3855032203        4.0843044409       15.6667286537
V                4.1882217895        4.0312438869       15.6513419744
V                4.1453105473        4.2119457891       11.5975026988    0   0   0
V                2.1879867013        0.0520231596        9.5054883674    0   0   0
V                2.1522427348        4.1319303501        9.4904675789    0   0   0
V                2.0989936514        8.3514452812       13.6585852510
V                6.3102415464        4.2345128582       13.7221378597
V                4.1879625312        2.1039236107       13.5962819194
V                2.1048639148        6.2714192178       11.5723879270    0   0   0
V                6.3158808164        6.1438819511       11.5700667150    0   0   0
Cr               4.2398825093       -0.1424599095       15.5675700053
Cr               0.1179128009        4.1786640750       11.5195623927    0   0   0
Cr               4.1681598842        8.2577799257       11.6615352591    0   0   0
Cr               6.1999882077        0.1106418811        9.6948923906    0   0   0
Cr               6.2007452456        4.0563627707        9.3394942948    0   0   0
Cr               6.3133498910        8.2596115384       13.6025922484
Cr               4.2149984025        2.0754774019        9.7444374941    0   0   0
Cr               2.0945538601        2.0529166613       15.5880037854
Cr               6.2136084796        2.0604600756       15.5503846276
Cr               2.0054620409        2.1149661174       11.6192682974    0   0   0
Cr               6.3992485267        2.2488278238       11.6549867199    0   0   0
C                8.3671464633        0.0123762133        9.4921945368    0   0   0
C                8.3685510870        4.1683341954        9.4949958325    0   0   0
C                4.2233794382        0.0660683478        9.5137772640    0   0   0
C                4.2071394793        4.1170355077        9.4900603783    0   0   0
C                8.3688197191       -0.0048251344       13.7673573513
C                8.3638663988        4.1689496811       13.7364627055
C                4.2170245621       -0.0254839531       13.6929602981
C                4.2192504507        4.1206429501       13.7187991854
C                2.2493023160        0.1394496392       15.9010489745
C                2.1441494868        4.1677628490       15.9102484544
C                6.1896207991        0.1115057131       15.8998550557
C                6.2703343778        4.1603502884       15.8696384115
C                2.1521326937        0.0175132539       11.5903255372    0   0   0
C                2.1078429860        4.1683083653       11.5671868517    0   0   0
C                6.2417937451        0.0188099573       11.6002801854    0   0   0
C                6.3283074126        4.1569384024       11.5682471185    0   0   0
C                8.4092509920        2.1562218969       15.9542662331
C                8.3987100594        6.3115353333       16.0530947395
C                4.2239195352        2.1188969825       15.7576518117
C                4.2087638038        6.3843308359       15.9406001438
C                0.0147673152        2.1438801594       11.5939557114    0   0   0
C                0.0200697416        6.2277703895       11.5821679336    0   0   0
C                4.2182428542        2.0594943016       11.6100232202    0   0   0
C                4.2117703951        6.2583221129       11.5919858628    0   0   0
C                2.1713130363        2.0860319016        9.4919958919    0   0   0
C                2.1164500536        6.2753611976        9.5156635851    0   0   0
C                6.2203151227        2.0809934926        9.4961719556    0   0   0
C                6.2861737462        6.2618311600        9.5257047400    0   0   0
C                2.1243606332        2.0573970410       13.7410438835
C                2.1024147019        6.2921376003       13.7450596493
C                6.2580548421        2.0663293694       13.7017491017
C                6.3065881895        6.2415785858       13.7226945710



     Writing config-only to output data dir ./tmp/hec3_CrTiV_f100_CO_clean.save/ :
     XML data file
     NEW-OLD atomic charge density approx. for the potential

     Check: negative core charge=   -0.000005

     negative rho (up, down):  3.535E-02 0.000E+00

     total cpu time spent up to now is     5502.3 secs

     Self-consistent Calculation

     iteration #  1     ecut=    60.00 Ry     beta= 0.30
     Davidson diagonalization with overlap
     c_bands:  1 eigenvalues not converged
     ethr =  1.00E-06,  avg # of iterations = 20.0

     negative rho (up, down):  3.527E-02 0.000E+00

     total cpu time spent up to now is     5520.0 secs

     total energy              =   -5283.68008311 Ry
     estimated scf accuracy    <       0.03056541 Ry

     iteration #  2     ecut=    60.00 Ry     beta= 0.30
     Davidson diagonalization with overlap
     c_bands:  1 eigenvalues not converged
     ethr =  5.62E-06,  avg # of iterations = 20.0

     negative rho (up, down):  3.528E-02 0.000E+00

     total cpu time spent up to now is     5536.6 secs

     total energy              =   -5283.62341348 Ry
     estimated scf accuracy    <       3.44620890 Ry

     iteration #  3     ecut=    60.00 Ry     beta= 0.30
     Davidson diagonalization with overlap
     c_bands:  3 eigenvalues not converged
     ethr =  5.62E-06,  avg # of iterations = 20.0

     negative rho (up, down):  3.524E-02 0.000E+00

     total cpu time spent up to now is     5559.0 secs

     total energy              =   -5283.67660801 Ry
     estimated scf accuracy    <       0.63542086 Ry

     iteration #  4     ecut=    60.00 Ry     beta= 0.30
     Davidson diagonalization with overlap
     ethr =  5.62E-06,  avg # of iterations = 12.0

     negative rho (up, down):  3.524E-02 0.000E+00

     total cpu time spent up to now is     5570.9 secs

     total energy              =   -5283.68952118 Ry
     estimated scf accuracy    <       0.05821924 Ry

     iteration #  5     ecut=    60.00 Ry     beta= 0.30
     Davidson diagonalization with overlap
     ethr =  5.62E-06,  avg # of iterations =  2.0

     negative rho (up, down):  3.528E-02 0.000E+00

     total cpu time spent up to now is     5577.8 secs

     total energy              =   -5283.69104863 Ry
     estimated scf accuracy    <       0.01647452 Ry

     iteration #  6     ecut=    60.00 Ry     beta= 0.30
     Davidson diagonalization with overlap
     ethr =  3.03E-06,  avg # of iterations =  6.0

     negative rho (up, down):  3.528E-02 0.000E+00

     total cpu time spent up to now is     5586.7 secs

     total energy              =   -5283.69144732 Ry
     estimated scf accuracy    <       0.02487192 Ry

     iteration #  7     ecut=    60.00 Ry     beta= 0.30
     Davidson diagonalization with overlap
     ethr =  3.03E-06,  avg # of iterations =  1.0

     negative rho (up, down):  3.530E-02 0.000E+00

     total cpu time spent up to now is     5593.5 secs

     total energy              =   -5283.69184758 Ry
     estimated scf accuracy    <       0.01007912 Ry

     iteration #  8     ecut=    60.00 Ry     beta= 0.30
     Davidson diagonalization with overlap
     ethr =  1.85E-06,  avg # of iterations =  1.0

     negative rho (up, down):  3.530E-02 0.000E+00

     total cpu time spent up to now is     5600.3 secs

     total energy              =   -5283.69214970 Ry
     estimated scf accuracy    <       0.00305528 Ry

     iteration #  9     ecut=    60.00 Ry     beta= 0.30
     Davidson diagonalization with overlap
     ethr =  5.62E-07,  avg # of iterations =  2.0

     negative rho (up, down):  3.532E-02 0.000E+00

     total cpu time spent up to now is     5607.4 secs

     total energy              =   -5283.69218942 Ry
     estimated scf accuracy    <       0.00321701 Ry

     iteration # 10     ecut=    60.00 Ry     beta= 0.30
     Davidson diagonalization with overlap
     ethr =  5.62E-07,  avg # of iterations =  1.0

     negative rho (up, down):  3.531E-02 0.000E+00

     total cpu time spent up to now is     5616.6 secs

     total energy              =   -5283.69225947 Ry
     estimated scf accuracy    <       0.00122407 Ry

     iteration # 11     ecut=    60.00 Ry     beta= 0.30
     Davidson diagonalization with overlap
     ethr =  2.25E-07,  avg # of iterations =  2.0

     negative rho (up, down):  3.531E-02 0.000E+00

     total cpu time spent up to now is     5624.2 secs

     total energy              =   -5283.69228876 Ry
     estimated scf accuracy    <       0.00094006 Ry

     iteration # 12     ecut=    60.00 Ry     beta= 0.30
     Davidson diagonalization with overlap
     ethr =  1.73E-07,  avg # of iterations =  1.0

     negative rho (up, down):  3.531E-02 0.000E+00

     total cpu time spent up to now is     5630.7 secs

     total energy              =   -5283.69223738 Ry
     estimated scf accuracy    <       0.00237402 Ry

     iteration # 13     ecut=    60.00 Ry     beta= 0.30
     Davidson diagonalization with overlap
     ethr =  1.73E-07,  avg # of iterations =  5.0

     negative rho (up, down):  3.531E-02 0.000E+00

     total cpu time spent up to now is     5639.0 secs

     total energy              =   -5283.69218575 Ry
     estimated scf accuracy    <       0.00834967 Ry

     iteration # 14     ecut=    60.00 Ry     beta= 0.30
     Davidson diagonalization with overlap
     ethr =  1.73E-07,  avg # of iterations =  5.0

     negative rho (up, down):  3.531E-02 0.000E+00

     total cpu time spent up to now is     5647.3 secs

     total energy              =   -5283.69231031 Ry
     estimated scf accuracy    <       0.00071066 Ry

     iteration # 15     ecut=    60.00 Ry     beta= 0.30
     Davidson diagonalization with overlap
     ethr =  1.31E-07,  avg # of iterations =  1.0

     negative rho (up, down):  3.531E-02 0.000E+00

     total cpu time spent up to now is     5654.1 secs

     total energy              =   -5283.69233654 Ry
     estimated scf accuracy    <       0.00004749 Ry

     iteration # 16     ecut=    60.00 Ry     beta= 0.30
     Davidson diagonalization with overlap
     ethr =  8.73E-09,  avg # of iterations =  6.0

     negative rho (up, down):  3.532E-02 0.000E+00

     total cpu time spent up to now is     5663.3 secs

     total energy              =   -5283.69233434 Ry
     estimated scf accuracy    <       0.00015535 Ry

     iteration # 17     ecut=    60.00 Ry     beta= 0.30
     Davidson diagonalization with overlap
     ethr =  8.73E-09,  avg # of iterations =  5.0

     negative rho (up, down):  3.532E-02 0.000E+00

     total cpu time spent up to now is     5673.1 secs

     total energy              =   -5283.69233582 Ry
     estimated scf accuracy    <       0.00018952 Ry

     iteration # 18     ecut=    60.00 Ry     beta= 0.30
     Davidson diagonalization with overlap
     ethr =  8.73E-09,  avg # of iterations =  2.0

     negative rho (up, down):  3.532E-02 0.000E+00

     total cpu time spent up to now is     5681.1 secs

     total energy              =   -5283.69233879 Ry
     estimated scf accuracy    <       0.00007967 Ry

     iteration # 19     ecut=    60.00 Ry     beta= 0.30
     Davidson diagonalization with overlap
     ethr =  8.73E-09,  avg # of iterations =  2.0

     negative rho (up, down):  3.532E-02 0.000E+00

     total cpu time spent up to now is     5688.9 secs

     total energy              =   -5283.69234025 Ry
     estimated scf accuracy    <       0.00004607 Ry

     iteration # 20     ecut=    60.00 Ry     beta= 0.30
     Davidson diagonalization with overlap
     ethr =  8.47E-09,  avg # of iterations =  2.0

     negative rho (up, down):  3.532E-02 0.000E+00

     total cpu time spent up to now is     5696.3 secs

     total energy              =   -5283.69233974 Ry
     estimated scf accuracy    <       0.00005767 Ry

     iteration # 21     ecut=    60.00 Ry     beta= 0.30
     Davidson diagonalization with overlap
     ethr =  8.47E-09,  avg # of iterations =  2.0

     negative rho (up, down):  3.532E-02 0.000E+00

     total cpu time spent up to now is     5704.0 secs

     total energy              =   -5283.69234045 Ry
     estimated scf accuracy    <       0.00005440 Ry

     iteration # 22     ecut=    60.00 Ry     beta= 0.30
     Davidson diagonalization with overlap
     ethr =  8.47E-09,  avg # of iterations =  1.0

     negative rho (up, down):  3.532E-02 0.000E+00

     total cpu time spent up to now is     5711.1 secs

     total energy              =   -5283.69234218 Ry
     estimated scf accuracy    <       0.00001122 Ry

     iteration # 23     ecut=    60.00 Ry     beta= 0.30
     Davidson diagonalization with overlap
     ethr =  2.06E-09,  avg # of iterations =  2.0

     negative rho (up, down):  3.532E-02 0.000E+00

     total cpu time spent up to now is     5718.7 secs

     total energy              =   -5283.69234240 Ry
     estimated scf accuracy    <       0.00001234 Ry

     iteration # 24     ecut=    60.00 Ry     beta= 0.30
     Davidson diagonalization with overlap
     ethr =  2.06E-09,  avg # of iterations =  1.0

     negative rho (up, down):  3.532E-02 0.000E+00

     total cpu time spent up to now is     5725.6 secs

     total energy              =   -5283.69234237 Ry
     estimated scf accuracy    <       0.00000973 Ry

     iteration # 25     ecut=    60.00 Ry     beta= 0.30
     Davidson diagonalization with overlap
     ethr =  1.79E-09,  avg # of iterations =  1.0

     negative rho (up, down):  3.532E-02 0.000E+00

     total cpu time spent up to now is     5732.7 secs

     total energy              =   -5283.69234247 Ry
     estimated scf accuracy    <       0.00001003 Ry

     iteration # 26     ecut=    60.00 Ry     beta= 0.30
     Davidson diagonalization with overlap
     ethr =  1.79E-09,  avg # of iterations =  1.0

     negative rho (up, down):  3.532E-02 0.000E+00

     total cpu time spent up to now is     5739.2 secs

     total energy              =   -5283.69234259 Ry
     estimated scf accuracy    <       0.00001451 Ry

     iteration # 27     ecut=    60.00 Ry     beta= 0.30
     Davidson diagonalization with overlap
     ethr =  1.79E-09,  avg # of iterations =  1.0

     negative rho (up, down):  3.532E-02 0.000E+00

     total cpu time spent up to now is     5745.9 secs

     total energy              =   -5283.69234270 Ry
     estimated scf accuracy    <       0.00000769 Ry

     iteration # 28     ecut=    60.00 Ry     beta= 0.30
     Davidson diagonalization with overlap
     ethr =  1.41E-09,  avg # of iterations =  1.0

     negative rho (up, down):  3.532E-02 0.000E+00

     total cpu time spent up to now is     5752.6 secs

     total energy              =   -5283.69234285 Ry
     estimated scf accuracy    <       0.00000528 Ry

     iteration # 29     ecut=    60.00 Ry     beta= 0.30
     Davidson diagonalization with overlap
     ethr =  9.71E-10,  avg # of iterations =  1.0

     negative rho (up, down):  3.532E-02 0.000E+00

     total cpu time spent up to now is     5759.3 secs

     total energy              =   -5283.69234292 Ry
     estimated scf accuracy    <       0.00000178 Ry

     iteration # 30     ecut=    60.00 Ry     beta= 0.30
     Davidson diagonalization with overlap
     ethr =  3.28E-10,  avg # of iterations =  1.0

     negative rho (up, down):  3.532E-02 0.000E+00

     total cpu time spent up to now is     5766.4 secs

     total energy              =   -5283.69234293 Ry
     estimated scf accuracy    <       0.00000199 Ry

     iteration # 31     ecut=    60.00 Ry     beta= 0.30
     Davidson diagonalization with overlap
     ethr =  3.28E-10,  avg # of iterations =  1.0

     negative rho (up, down):  3.532E-02 0.000E+00

     total cpu time spent up to now is     5772.9 secs

     total energy              =   -5283.69234292 Ry
     estimated scf accuracy    <       0.00000204 Ry

     iteration # 32     ecut=    60.00 Ry     beta= 0.30
     Davidson diagonalization with overlap
     ethr =  3.28E-10,  avg # of iterations =  1.0

     negative rho (up, down):  3.532E-02 0.000E+00

     total cpu time spent up to now is     5779.3 secs

     total energy              =   -5283.69234299 Ry
     estimated scf accuracy    <       0.00000067 Ry

     iteration # 33     ecut=    60.00 Ry     beta= 0.30
     Davidson diagonalization with overlap
     ethr =  1.22E-10,  avg # of iterations =  1.0

     negative rho (up, down):  3.532E-02 0.000E+00

     total cpu time spent up to now is     5785.5 secs

     total energy              =   -5283.69234301 Ry
     estimated scf accuracy    <       0.00000030 Ry

     iteration # 34     ecut=    60.00 Ry     beta= 0.30
     Davidson diagonalization with overlap
     ethr =  5.51E-11,  avg # of iterations =  1.0

     negative rho (up, down):  3.532E-02 0.000E+00

     total cpu time spent up to now is     5792.4 secs

     total energy              =   -5283.69234302 Ry
     estimated scf accuracy    <       0.00000024 Ry

     iteration # 35     ecut=    60.00 Ry     beta= 0.30
     Davidson diagonalization with overlap
     ethr =  4.47E-11,  avg # of iterations =  2.0

     negative rho (up, down):  3.532E-02 0.000E+00

     total cpu time spent up to now is     5799.9 secs

     total energy              =   -5283.69234300 Ry
     estimated scf accuracy    <       0.00000076 Ry

     iteration # 36     ecut=    60.00 Ry     beta= 0.30
     Davidson diagonalization with overlap
     ethr =  4.47E-11,  avg # of iterations =  2.0

     negative rho (up, down):  3.532E-02 0.000E+00

     total cpu time spent up to now is     5807.2 secs

     total energy              =   -5283.69234300 Ry
     estimated scf accuracy    <       0.00000203 Ry

     iteration # 37     ecut=    60.00 Ry     beta= 0.30
     Davidson diagonalization with overlap
     ethr =  4.47E-11,  avg # of iterations =  2.0

     negative rho (up, down):  3.532E-02 0.000E+00

     total cpu time spent up to now is     5814.4 secs

     total energy              =   -5283.69234302 Ry
     estimated scf accuracy    <       0.00000045 Ry

     iteration # 38     ecut=    60.00 Ry     beta= 0.30
     Davidson diagonalization with overlap
     ethr =  4.47E-11,  avg # of iterations =  1.0

     negative rho (up, down):  3.532E-02 0.000E+00

     total cpu time spent up to now is     5821.2 secs

     total energy              =   -5283.69234302 Ry
     estimated scf accuracy    <       0.00000050 Ry

     iteration # 39     ecut=    60.00 Ry     beta= 0.30
     Davidson diagonalization with overlap
     ethr =  4.47E-11,  avg # of iterations =  1.0

     negative rho (up, down):  3.532E-02 0.000E+00

     total cpu time spent up to now is     5827.6 secs

     total energy              =   -5283.69234303 Ry
     estimated scf accuracy    <       0.00000010 Ry

     iteration # 40     ecut=    60.00 Ry     beta= 0.30
     Davidson diagonalization with overlap
     ethr =  1.85E-11,  avg # of iterations =  1.0

     negative rho (up, down):  3.532E-02 0.000E+00

     total cpu time spent up to now is     5834.0 secs

     total energy              =   -5283.69234303 Ry
     estimated scf accuracy    <       0.00000013 Ry

     iteration # 41     ecut=    60.00 Ry     beta= 0.30
     Davidson diagonalization with overlap
     ethr =  1.85E-11,  avg # of iterations =  1.0

     negative rho (up, down):  3.532E-02 0.000E+00

     total cpu time spent up to now is     5840.5 secs

     total energy              =   -5283.69234303 Ry
     estimated scf accuracy    <       0.00000011 Ry

     iteration # 42     ecut=    60.00 Ry     beta= 0.30
     Davidson diagonalization with overlap
     ethr =  1.85E-11,  avg # of iterations =  2.0

     negative rho (up, down):  3.532E-02 0.000E+00

     total cpu time spent up to now is     5847.8 secs

     total energy              =   -5283.69234303 Ry
     estimated scf accuracy    <       0.00000012 Ry

     iteration # 43     ecut=    60.00 Ry     beta= 0.30
     Davidson diagonalization with overlap
     ethr =  1.85E-11,  avg # of iterations =  1.0

     negative rho (up, down):  3.532E-02 0.000E+00

     total cpu time spent up to now is     5854.4 secs

     total energy              =   -5283.69234304 Ry
     estimated scf accuracy    <       0.00000003 Ry

     iteration # 44     ecut=    60.00 Ry     beta= 0.30
     Davidson diagonalization with overlap
     ethr =  6.14E-12,  avg # of iterations =  1.0

     negative rho (up, down):  3.532E-02 0.000E+00

     total cpu time spent up to now is     5860.9 secs

     total energy              =   -5283.69234304 Ry
     estimated scf accuracy    <       0.00000002 Ry

     iteration # 45     ecut=    60.00 Ry     beta= 0.30
     Davidson diagonalization with overlap
     ethr =  3.25E-12,  avg # of iterations =  2.0

     negative rho (up, down):  3.532E-02 0.000E+00

     total cpu time spent up to now is     5868.1 secs

     total energy              =   -5283.69234304 Ry
     estimated scf accuracy    <       0.00000003 Ry

     iteration # 46     ecut=    60.00 Ry     beta= 0.30
     Davidson diagonalization with overlap
     ethr =  3.25E-12,  avg # of iterations =  2.0

     negative rho (up, down):  3.532E-02 0.000E+00

     total cpu time spent up to now is     5875.2 secs

     total energy              =   -5283.69234304 Ry
     estimated scf accuracy    <       0.00000015 Ry

     iteration # 47     ecut=    60.00 Ry     beta= 0.30
     Davidson diagonalization with overlap
     ethr =  3.25E-12,  avg # of iterations =  2.0

     negative rho (up, down):  3.532E-02 0.000E+00

     total cpu time spent up to now is     5883.7 secs

     total energy              =   -5283.69234304 Ry
     estimated scf accuracy    <       0.00000004 Ry

     iteration # 48     ecut=    60.00 Ry     beta= 0.30
     Davidson diagonalization with overlap
     ethr =  3.25E-12,  avg # of iterations =  2.0

     negative rho (up, down):  3.532E-02 0.000E+00

     total cpu time spent up to now is     5890.7 secs

     total energy              =   -5283.69234304 Ry
     estimated scf accuracy    <       0.00000006 Ry

     iteration # 49     ecut=    60.00 Ry     beta= 0.30
     Davidson diagonalization with overlap
     ethr =  3.25E-12,  avg # of iterations =  1.0

     negative rho (up, down):  3.532E-02 0.000E+00

     total cpu time spent up to now is     5897.2 secs

     total energy              =   -5283.69234304 Ry
     estimated scf accuracy    <       0.00000001 Ry

     iteration # 50     ecut=    60.00 Ry     beta= 0.30
     Davidson diagonalization with overlap
     ethr =  1.90E-12,  avg # of iterations =  1.0

     negative rho (up, down):  3.532E-02 0.000E+00

     total cpu time spent up to now is     5904.1 secs

     total energy              =   -5283.69234304 Ry
     estimated scf accuracy    <          9.2E-09 Ry

     iteration # 51     ecut=    60.00 Ry     beta= 0.30
     Davidson diagonalization with overlap
     ethr =  1.70E-12,  avg # of iterations =  1.0

     negative rho (up, down):  3.532E-02 0.000E+00

     total cpu time spent up to now is     5910.6 secs

     total energy              =   -5283.69234304 Ry
     estimated scf accuracy    <          7.1E-09 Ry

     iteration # 52     ecut=    60.00 Ry     beta= 0.30
     Davidson diagonalization with overlap
     ethr =  1.30E-12,  avg # of iterations =  2.0

     negative rho (up, down):  3.532E-02 0.000E+00

     total cpu time spent up to now is     5917.9 secs

     total energy              =   -5283.69234304 Ry
     estimated scf accuracy    <       0.00000001 Ry

     iteration # 53     ecut=    60.00 Ry     beta= 0.30
     Davidson diagonalization with overlap
     ethr =  1.30E-12,  avg # of iterations =  1.0

     negative rho (up, down):  3.532E-02 0.000E+00

     total cpu time spent up to now is     5924.6 secs

     total energy              =   -5283.69234304 Ry
     estimated scf accuracy    <          5.7E-09 Ry

     iteration # 54     ecut=    60.00 Ry     beta= 0.30
     Davidson diagonalization with overlap
     ethr =  1.06E-12,  avg # of iterations =  1.0

     negative rho (up, down):  3.532E-02 0.000E+00

     total cpu time spent up to now is     5930.9 secs

     total energy              =   -5283.69234304 Ry
     estimated scf accuracy    <          2.3E-09 Ry

     iteration # 55     ecut=    60.00 Ry     beta= 0.30
     Davidson diagonalization with overlap
     ethr =  4.23E-13,  avg # of iterations =  1.0

     negative rho (up, down):  3.532E-02 0.000E+00

     total cpu time spent up to now is     5937.7 secs

     End of self-consistent calculation

          k = 0.0000 0.0000 0.0000 ( 46961 PWs)   bands (ev):

   -69.6709 -69.6025 -69.5844 -69.5724 -69.5690 -69.5557 -69.5534 -69.5327
   -69.5057 -69.4258 -69.3329 -62.1491 -62.1470 -62.1460 -62.1114 -62.0926
   -62.0229 -62.0129 -62.0010 -61.8510 -61.7533 -54.4173 -54.3881 -54.2851
   -54.1274 -54.1038 -54.0912 -54.0692 -54.0422 -54.0178 -54.0017 -53.9744
   -41.0775 -41.0706 -41.0613 -41.0481 -41.0233 -40.9990 -40.9904 -40.9899
   -40.9726 -40.9654 -40.9560 -40.9539 -40.9391 -40.9372 -40.9150 -40.9122
   -40.8973 -40.8932 -40.8883 -40.8834 -40.8819 -40.8542 -40.8525 -40.8400
   -40.8242 -40.8218 -40.8166 -40.8015 -40.7798 -40.7733 -40.7326 -40.6839
   -40.5538 -36.1242 -36.0992 -36.0742 -36.0717 -36.0634 -36.0589 -36.0287
   -36.0084 -36.0009 -35.9923 -35.9723 -35.9622 -35.9543 -35.9463 -35.9402
   -35.9273 -35.9230 -35.9040 -35.8956 -35.8699 -35.8675 -35.8597 -35.8000
   -35.7898 -35.7547 -35.7072 -35.6643 -35.6555 -35.5996 -35.5884 -30.8532
   -30.8042 -30.7071 -30.6858 -30.6592 -30.6439 -30.6352 -30.6198 -30.5944
   -30.5650 -30.5477 -30.5406 -30.5208 -30.5035 -30.4909 -30.4879 -30.4742
   -30.4662 -30.4415 -30.4268 -30.3959 -30.3638 -30.3413 -30.3333 -30.3224
   -30.3114 -30.2990 -30.2758 -30.2560 -30.2393 -30.2061 -30.1786 -30.1405
   -10.8081  -9.7529  -9.3391  -9.2705  -9.1588  -9.0359  -8.6508  -8.4539
    -8.3953  -8.3812  -8.3453  -8.2495  -8.2223  -8.1260  -8.0682  -7.8742
    -7.8153  -7.7755  -7.6648  -7.6079  -7.5633  -7.5461  -7.4717  -7.4223
    -7.3358  -7.3129  -7.2055  -7.1083  -7.0017  -6.9531  -6.7526  -6.4261
    -4.0458  -3.9866  -3.9358  -3.8137  -3.0871  -2.9421  -2.7689  -2.7355
    -2.7074  -2.6537  -2.6451  -2.5604  -2.5029  -2.4488  -2.4455  -2.3114
    -2.1496  -2.1304  -2.0777  -1.9301  -1.9113  -1.8860  -1.8349  -1.7713
    -1.6799  -1.6197  -1.5543  -1.5197  -1.4881  -1.4651  -1.4453  -1.4356
    -1.4272  -1.4189  -1.4080  -1.3668  -1.3550  -1.3005  -1.2916  -1.2362
    -1.2090  -1.1828  -1.1214  -1.1032  -1.0505  -0.9999  -0.9805  -0.9564
    -0.9462  -0.8741  -0.8621  -0.8078  -0.7882  -0.7696  -0.7418  -0.7137
    -0.6983  -0.6819  -0.6776  -0.6419  -0.6070  -0.4599  -0.4289  -0.3894
    -0.3615  -0.2991  -0.2754  -0.1980  -0.1869  -0.1591  -0.1251  -0.0908
    -0.0571  -0.0235   0.0292   0.0360   0.0893   0.2004   0.3248   0.3675
     0.4056   0.5484   0.5678   0.6525   0.6823   0.7347   0.8099   0.9381
     0.9573   0.9824   1.1076   1.1615   1.2348   1.2405   1.3335   1.3457
     1.4834   1.5972   1.6367   1.7008   1.7308   1.8873   1.9196   2.1408
     2.3738   2.5457   2.6096   2.6629   2.7425   2.7870   2.8573   2.8707
     2.9331   3.0158   3.0238   3.0390   3.0613   3.1457   3.1722   3.1747
     3.1916   3.2419   3.2597   3.2800   3.3000   3.3306   3.3538   3.4054
     3.4277   3.4613   3.5081   3.5241   3.5355   3.5514   3.5794   3.6396
     3.6502   3.7421   3.7817   3.8314   3.8576   3.8921   3.9019   3.9463
     3.9687   4.0061   4.0576   4.0608   4.0899   4.1213   4.1559   4.1874
     4.2003   4.2554   4.2776   4.3506   4.3785   4.4300   4.4643   4.4996
     4.5240   4.5394   4.5658   4.6754   4.6943   4.7163

     the Fermi energy is     2.9127 ev

!    total energy              =   -5283.69234304 Ry
     estimated scf accuracy    <          1.8E-09 Ry
     smearing contrib. (-TS)   =      -0.03362030 Ry
     internal energy E=F+TS    =   -5283.65872274 Ry

     The total energy is F=E-TS. E is the sum of the following terms:
     one-electron contribution =  -55932.35183185 Ry
     hartree contribution      =   27989.87481816 Ry
     xc contribution           =    -787.56925136 Ry
     ewald contribution        =   23643.98805061 Ry
     one-center paw contrib.   =    -197.60050830 Ry

     convergence has been achieved in  55 iterations

     negative rho (up, down):  3.532E-02 0.000E+00

     Forces acting on atoms (cartesian axes, Ry/au):

     atom    1 type  1   force =    -0.00507700   -0.01092312   -0.00382510
     atom    2 type  1   force =    -0.00870742   -0.00478858    0.00800261
     atom    3 type  1   force =    -0.00039378    0.00106351    0.00191852
     atom    4 type  1   force =    -0.00024375   -0.01638463    0.03171146
     atom    5 type  1   force =    -0.00455448    0.01257759    0.00274937
     atom    6 type  1   force =     0.00865431   -0.00148667    0.02753847
     atom    7 type  1   force =     0.00030949   -0.00253025   -0.01106536
     atom    8 type  1   force =    -0.00049193    0.00136659   -0.01027098
     atom    9 type  1   force =     0.00045168    0.00258406    0.00081272
     atom   10 type  1   force =     0.00855988   -0.00076259   -0.00467380
     atom   11 type  1   force =    -0.01359451    0.00187297   -0.00802647
     atom   12 type  2   force =    -0.00870709   -0.00123534    0.00083480
     atom   13 type  2   force =    -0.00512246    0.01161433    0.00192672
     atom   14 type  2   force =     0.02245237   -0.00845885    0.01014312
     atom   15 type  2   force =    -0.00954247    0.00154618    0.11472973
     atom   16 type  2   force =     0.00671697   -0.00056465    0.09569371
     atom   17 type  2   force =    -0.00078315   -0.00040176    0.00000552
     atom   18 type  2   force =     0.00098312    0.00264657    0.00472868
     atom   19 type  2   force =    -0.00249076    0.00150026   -0.01576609
     atom   20 type  2   force =     0.00054493   -0.00915089   -0.01083118
     atom   21 type  2   force =     0.00361174    0.02391438   -0.01391097
     atom   22 type  3   force =    -0.00363233   -0.00527627    0.00070947
     atom   23 type  3   force =    -0.02129703   -0.01263009    0.01020094
     atom   24 type  3   force =     0.03135905    0.02248465   -0.01821898
     atom   25 type  3   force =     0.01327513   -0.01561446    0.06960530
     atom   26 type  3   force =    -0.00372987    0.01055239    0.12445883
     atom   27 type  3   force =     0.00093006    0.00096849   -0.00202223
     atom   28 type  3   force =    -0.00943252   -0.00062028    0.03704693
     atom   29 type  3   force =    -0.00963645   -0.00966362   -0.00044350
     atom   30 type  3   force =    -0.00268864   -0.01207906   -0.00241956
     atom   31 type  3   force =     0.00880525   -0.00302538   -0.01355748
     atom   32 type  3   force =    -0.01460994   -0.00563299   -0.00583209
     atom   33 type  4   force =     0.00191663   -0.00740945   -0.03337593
     atom   34 type  4   force =     0.00972573    0.01271699   -0.00560318
     atom   35 type  4   force =    -0.00309502   -0.01765518   -0.02084114
     atom   36 type  4   force =     0.00100057    0.01133499   -0.03291108
     atom   37 type  4   force =    -0.00033321    0.00018470    0.00384640
     atom   38 type  4   force =    -0.00023976   -0.00212366    0.00748817
     atom   39 type  4   force =     0.00170382    0.00443072    0.00717805
     atom   40 type  4   force =    -0.00107487   -0.00439619   -0.00303922
     atom   41 type  4   force =    -0.00361735    0.00807858    0.00184069
     atom   42 type  4   force =    -0.00227515   -0.00139887    0.00100779
     atom   43 type  4   force =     0.01703981    0.00245956    0.00344823
     atom   44 type  4   force =     0.00783712   -0.00518928    0.00327082
     atom   45 type  4   force =     0.00167117    0.00845170   -0.03794799
     atom   46 type  4   force =     0.00322992    0.00154608   -0.04677630
     atom   47 type  4   force =    -0.00961163   -0.00070694   -0.02121453
     atom   48 type  4   force =    -0.01474297   -0.00839366   -0.02605551
     atom   49 type  4   force =     0.01185586    0.00245094   -0.00715954
     atom   50 type  4   force =    -0.00002150    0.00610635   -0.00389937
     atom   51 type  4   force =     0.00834314   -0.00523922   -0.00296700
     atom   52 type  4   force =     0.00522185    0.02706840   -0.00162801
     atom   53 type  4   force =    -0.00228335   -0.00615736   -0.02735741
     atom   54 type  4   force =    -0.00543525    0.00919297   -0.02867145
     atom   55 type  4   force =     0.00028091    0.00277991   -0.03031915
     atom   56 type  4   force =    -0.00066524   -0.00939266   -0.03058860
     atom   57 type  4   force =    -0.01658972    0.00871917   -0.02490891
     atom   58 type  4   force =    -0.00903710   -0.00678130   -0.03305384
     atom   59 type  4   force =     0.01489633    0.01479927   -0.03039819
     atom   60 type  4   force =     0.00220685   -0.01036471   -0.01927581
     atom   61 type  4   force =     0.00169124   -0.00206742   -0.00163442
     atom   62 type  4   force =     0.00259325   -0.00195378    0.01300919
     atom   63 type  4   force =    -0.00175863   -0.00205686   -0.00135363
     atom   64 type  4   force =    -0.00235187   -0.00249629    0.00793776

     Total force =     0.061237     Total SCF correction =     0.000119
     Energy error            =      4.1E-03 Ry
     Gradient error          =      2.7E-02 Ry/Bohr

     number of scf cycles    =  14
     number of bfgs steps    =  13

     energy             old  =   -5283.6882451089 Ry
     energy             new  =   -5283.6923430375 Ry

     CASE: energy            _new < energy            _old

     new trust radius        =       0.0657667391 bohr
     new conv_thr            =       0.0000000027 Ry


ATOMIC_POSITIONS (angstrom)
Ti               8.3447712541        0.0177999985       15.7805486287
Ti               0.0291331002        8.3621570543       11.5803477355    0   0   0
Ti               2.0903174423        4.2166693110       13.6792238252
Ti               8.3795041056        2.0957563981        9.4724378689    0   0   0
Ti               8.3750099733        6.2687152092        9.4933225157    0   0   0
Ti               4.2170671874        6.2898439467        9.4911460380    0   0   0
Ti               8.3684523366        2.0939081400       13.6570892262
Ti               8.3920838053        6.2806092736       13.6513990568
Ti               4.1991766273        6.2471562215       13.6482989201
Ti               2.0914193505        6.2162843477       15.8028846384
Ti               6.3020851891        6.2048759208       15.7975214671
V                8.3649824103        4.0740894847       15.6572686616
V                4.1815720689        4.0361373396       15.6497663785
V                4.1453105473        4.2119457891       11.5975026988    0   0   0
V                2.1879867013        0.0520231596        9.5054883674    0   0   0
V                2.1522427348        4.1319303501        9.4904675789    0   0   0
V                2.1026181248        8.3513884880       13.6615257632
V                6.3144850749        4.2388522967       13.7185905789
V                4.1861443227        2.1058252569       13.5827493444
V                2.1048639148        6.2714192178       11.5723879270    0   0   0
V                6.3158808164        6.1438819511       11.5700667150    0   0   0
Cr               4.2429468439       -0.1242738384       15.5712176127
Cr               0.1179128009        4.1786640750       11.5195623927    0   0   0
Cr               4.1681598842        8.2577799257       11.6615352591    0   0   0
Cr               6.1999882077        0.1106418811        9.6948923906    0   0   0
Cr               6.2007452456        4.0563627707        9.3394942948    0   0   0
Cr               6.3069224953        8.2635269901       13.6023472586
Cr               4.2149984025        2.0754774019        9.7444374941    0   0   0
Cr               2.0689131867        2.0310140827       15.5793997058
Cr               6.2095968959        2.0351525034       15.5441295398
Cr               2.0054620409        2.1149661174       11.6192682974    0   0   0
Cr               6.3992485267        2.2488278238       11.6549867199    0   0   0
C                8.3671464633        0.0123762133        9.4921945368    0   0   0
C                8.3685510870        4.1683341954        9.4949958325    0   0   0
C                4.2233794382        0.0660683478        9.5137772640    0   0   0
C                4.2071394793        4.1170355077        9.4900603783    0   0   0
C                8.3684746833       -0.0030086756       13.7863678892
C                8.3643701785        4.1632221806       13.7567583420
C                4.2177870999       -0.0211459155       13.7159506195
C                4.2185432054        4.1105072019       13.7167688721
C                2.2538969082        0.1571462457       15.8970525638
C                2.1448111678        4.1711912121       15.9151881773
C                6.2148423291        0.1148615170       15.9005361419
C                6.2790228273        4.1584644853       15.8793262818
C                2.1521326937        0.0175132539       11.5903255372    0   0   0
C                2.1078429860        4.1683083653       11.5671868517    0   0   0
C                6.2417937451        0.0188099573       11.6002801854    0   0   0
C                6.3283074126        4.1569384024       11.5682471185    0   0   0
C                8.4325751400        2.1553398755       15.9397743707
C                8.4009973514        6.3306443178       16.0550403068
C                4.2375771434        2.1255277411       15.7457450458
C                4.2162862912        6.4120988639       15.9480847221
C                0.0147673152        2.1438801594       11.5939557114    0   0   0
C                0.0200697416        6.2277703895       11.5821679336    0   0   0
C                4.2182428542        2.0594943016       11.6100232202    0   0   0
C                4.2117703951        6.2583221129       11.5919858628    0   0   0
C                2.1713130363        2.0860319016        9.4919958919    0   0   0
C                2.1164500536        6.2753611976        9.5156635851    0   0   0
C                6.2203151227        2.0809934926        9.4961719556    0   0   0
C                6.2861737462        6.2618311600        9.5257047400    0   0   0
C                2.1235462806        2.0520605888       13.7456797205
C                2.1069945530        6.2869942590       13.7697312107
C                6.2573464621        2.0610521300       13.7085014375
C                6.3030841979        6.2360229816       13.7387985040



     Writing config-only to output data dir ./tmp/hec3_CrTiV_f100_CO_clean.save/ :
     XML data file
     NEW-OLD atomic charge density approx. for the potential

     Check: negative core charge=   -0.000005

     negative rho (up, down):  3.573E-02 0.000E+00

     total cpu time spent up to now is     5948.0 secs

     Self-consistent Calculation

     iteration #  1     ecut=    60.00 Ry     beta= 0.30
     Davidson diagonalization with overlap
     ethr =  1.00E-06,  avg # of iterations = 11.0

     negative rho (up, down):  3.561E-02 0.000E+00

     total cpu time spent up to now is     5962.8 secs

     total energy              =   -5283.67089519 Ry
     estimated scf accuracy    <       0.06590123 Ry

     iteration #  2     ecut=    60.00 Ry     beta= 0.30
     Davidson diagonalization with overlap
     ethr =  1.21E-05,  avg # of iterations = 15.0

     negative rho (up, down):  3.558E-02 0.000E+00

     total cpu time spent up to now is     5977.3 secs

     total energy              =   -5283.51170611 Ry
     estimated scf accuracy    <       9.24220516 Ry

     iteration #  3     ecut=    60.00 Ry     beta= 0.30
     Davidson diagonalization with overlap
     c_bands:  3 eigenvalues not converged
     ethr =  1.21E-05,  avg # of iterations = 20.0

     negative rho (up, down):  3.557E-02 0.000E+00

     total cpu time spent up to now is     5993.9 secs

     total energy              =   -5283.65987095 Ry
     estimated scf accuracy    <       1.93320061 Ry

     iteration #  4     ecut=    60.00 Ry     beta= 0.30
     Davidson diagonalization with overlap
     ethr =  1.21E-05,  avg # of iterations = 12.0

     negative rho (up, down):  3.555E-02 0.000E+00

     total cpu time spent up to now is     6006.4 secs

     total energy              =   -5283.68841008 Ry
     estimated scf accuracy    <       0.23616845 Ry

     iteration #  5     ecut=    60.00 Ry     beta= 0.30
     Davidson diagonalization with overlap
     ethr =  1.21E-05,  avg # of iterations =  2.0

     negative rho (up, down):  3.560E-02 0.000E+00

     total cpu time spent up to now is     6013.8 secs

     total energy              =   -5283.69360603 Ry
     estimated scf accuracy    <       0.07114975 Ry

     iteration #  6     ecut=    60.00 Ry     beta= 0.30
     Davidson diagonalization with overlap
     ethr =  1.21E-05,  avg # of iterations =  2.0

     negative rho (up, down):  3.562E-02 0.000E+00

     total cpu time spent up to now is     6020.8 secs

     total energy              =   -5283.69547876 Ry
     estimated scf accuracy    <       0.03678827 Ry

     iteration #  7     ecut=    60.00 Ry     beta= 0.30
     Davidson diagonalization with overlap
     ethr =  6.76E-06,  avg # of iterations =  2.0

     negative rho (up, down):  3.564E-02 0.000E+00

     total cpu time spent up to now is     6028.0 secs

     total energy              =   -5283.69644949 Ry
     estimated scf accuracy    <       0.01355626 Ry

     iteration #  8     ecut=    60.00 Ry     beta= 0.30
     Davidson diagonalization with overlap
     ethr =  2.49E-06,  avg # of iterations =  7.0

     negative rho (up, down):  3.564E-02 0.000E+00

     total cpu time spent up to now is     6037.4 secs

     total energy              =   -5283.69686408 Ry
     estimated scf accuracy    <       0.00576213 Ry

     iteration #  9     ecut=    60.00 Ry     beta= 0.30
     Davidson diagonalization with overlap
     ethr =  1.06E-06,  avg # of iterations =  5.0

     negative rho (up, down):  3.565E-02 0.000E+00

     total cpu time spent up to now is     6046.0 secs

     total energy              =   -5283.69683476 Ry
     estimated scf accuracy    <       0.01104357 Ry

     iteration # 10     ecut=    60.00 Ry     beta= 0.30
     Davidson diagonalization with overlap
     ethr =  1.06E-06,  avg # of iterations =  2.0

     negative rho (up, down):  3.565E-02 0.000E+00

     total cpu time spent up to now is     6053.3 secs

     total energy              =   -5283.69709835 Ry
     estimated scf accuracy    <       0.00282070 Ry

     iteration # 11     ecut=    60.00 Ry     beta= 0.30
     Davidson diagonalization with overlap
     ethr =  5.19E-07,  avg # of iterations =  2.0

     negative rho (up, down):  3.564E-02 0.000E+00

     total cpu time spent up to now is     6060.8 secs

     total energy              =   -5283.69718227 Ry
     estimated scf accuracy    <       0.00155423 Ry

     iteration # 12     ecut=    60.00 Ry     beta= 0.30
     Davidson diagonalization with overlap
     ethr =  2.86E-07,  avg # of iterations =  2.0

     negative rho (up, down):  3.565E-02 0.000E+00

     total cpu time spent up to now is     6068.0 secs

     total energy              =   -5283.69717242 Ry
     estimated scf accuracy    <       0.00199756 Ry

     iteration # 13     ecut=    60.00 Ry     beta= 0.30
     Davidson diagonalization with overlap
     ethr =  2.86E-07,  avg # of iterations =  2.0

     negative rho (up, down):  3.565E-02 0.000E+00

     total cpu time spent up to now is     6077.4 secs

     total energy              =   -5283.69713380 Ry
     estimated scf accuracy    <       0.00619967 Ry

     iteration # 14     ecut=    60.00 Ry     beta= 0.30
     Davidson diagonalization with overlap
     ethr =  2.86E-07,  avg # of iterations =  2.0

     negative rho (up, down):  3.565E-02 0.000E+00

     total cpu time spent up to now is     6084.7 secs

     total energy              =   -5283.69712835 Ry
     estimated scf accuracy    <       0.00742657 Ry

     iteration # 15     ecut=    60.00 Ry     beta= 0.30
     Davidson diagonalization with overlap
     ethr =  2.86E-07,  avg # of iterations =  1.0

     negative rho (up, down):  3.565E-02 0.000E+00

     total cpu time spent up to now is     6091.3 secs

     total energy              =   -5283.69728047 Ry
     estimated scf accuracy    <       0.00016083 Ry

     iteration # 16     ecut=    60.00 Ry     beta= 0.30
     Davidson diagonalization with overlap
     ethr =  2.96E-08,  avg # of iterations =  5.0

     negative rho (up, down):  3.565E-02 0.000E+00

     total cpu time spent up to now is     6099.9 secs

     total energy              =   -5283.69727618 Ry
     estimated scf accuracy    <       0.00028669 Ry

     iteration # 17     ecut=    60.00 Ry     beta= 0.30
     Davidson diagonalization with overlap
     ethr =  2.96E-08,  avg # of iterations =  5.0

     negative rho (up, down):  3.565E-02 0.000E+00

     total cpu time spent up to now is     6108.3 secs

     total energy              =   -5283.69727225 Ry
     estimated scf accuracy    <       0.00071901 Ry

     iteration # 18     ecut=    60.00 Ry     beta= 0.30
     Davidson diagonalization with overlap
     ethr =  2.96E-08,  avg # of iterations =  4.0

     negative rho (up, down):  3.565E-02 0.000E+00

     total cpu time spent up to now is     6116.5 secs

     total energy              =   -5283.69728808 Ry
     estimated scf accuracy    <       0.00017184 Ry

     iteration # 19     ecut=    60.00 Ry     beta= 0.30
     Davidson diagonalization with overlap
     ethr =  2.96E-08,  avg # of iterations =  1.0

     negative rho (up, down):  3.565E-02 0.000E+00

     total cpu time spent up to now is     6123.4 secs

     total energy              =   -5283.69729284 Ry
     estimated scf accuracy    <       0.00006086 Ry

     iteration # 20     ecut=    60.00 Ry     beta= 0.30
     Davidson diagonalization with overlap
     ethr =  1.12E-08,  avg # of iterations =  2.0

     negative rho (up, down):  3.565E-02 0.000E+00

     total cpu time spent up to now is     6131.1 secs

     total energy              =   -5283.69729368 Ry
     estimated scf accuracy    <       0.00003597 Ry

     iteration # 21     ecut=    60.00 Ry     beta= 0.30
     Davidson diagonalization with overlap
     ethr =  6.61E-09,  avg # of iterations =  2.0

     negative rho (up, down):  3.565E-02 0.000E+00

     total cpu time spent up to now is     6138.6 secs

     total energy              =   -5283.69729279 Ry
     estimated scf accuracy    <       0.00009296 Ry

     iteration # 22     ecut=    60.00 Ry     beta= 0.30
     Davidson diagonalization with overlap
     ethr =  6.61E-09,  avg # of iterations =  2.0

     negative rho (up, down):  3.565E-02 0.000E+00

     total cpu time spent up to now is     6145.8 secs

     total energy              =   -5283.69729495 Ry
     estimated scf accuracy    <       0.00004099 Ry

     iteration # 23     ecut=    60.00 Ry     beta= 0.30
     Davidson diagonalization with overlap
     ethr =  6.61E-09,  avg # of iterations =  1.0

     negative rho (up, down):  3.565E-02 0.000E+00

     total cpu time spent up to now is     6152.2 secs

     total energy              =   -5283.69729536 Ry
     estimated scf accuracy    <       0.00004563 Ry

     iteration # 24     ecut=    60.00 Ry     beta= 0.30
     Davidson diagonalization with overlap
     ethr =  6.61E-09,  avg # of iterations =  1.0

     negative rho (up, down):  3.565E-02 0.000E+00

     total cpu time spent up to now is     6158.9 secs

     total energy              =   -5283.69729559 Ry
     estimated scf accuracy    <       0.00005306 Ry

     iteration # 25     ecut=    60.00 Ry     beta= 0.30
     Davidson diagonalization with overlap
     ethr =  6.61E-09,  avg # of iterations =  1.0

     negative rho (up, down):  3.565E-02 0.000E+00

     total cpu time spent up to now is     6165.7 secs

     total energy              =   -5283.69729643 Ry
     estimated scf accuracy    <       0.00001000 Ry

     iteration # 26     ecut=    60.00 Ry     beta= 0.30
     Davidson diagonalization with overlap
     ethr =  1.84E-09,  avg # of iterations =  2.0

     negative rho (up, down):  3.565E-02 0.000E+00

     total cpu time spent up to now is     6173.0 secs

     total energy              =   -5283.69729646 Ry
     estimated scf accuracy    <       0.00001014 Ry

     iteration # 27     ecut=    60.00 Ry     beta= 0.30
     Davidson diagonalization with overlap
     ethr =  1.84E-09,  avg # of iterations =  2.0

     negative rho (up, down):  3.565E-02 0.000E+00

     total cpu time spent up to now is     6180.4 secs

     total energy              =   -5283.69729601 Ry
     estimated scf accuracy    <       0.00003151 Ry

     iteration # 28     ecut=    60.00 Ry     beta= 0.30
     Davidson diagonalization with overlap
     ethr =  1.84E-09,  avg # of iterations =  1.0

     negative rho (up, down):  3.565E-02 0.000E+00

     total cpu time spent up to now is     6187.3 secs

     total energy              =   -5283.69729657 Ry
     estimated scf accuracy    <       0.00001631 Ry

     iteration # 29     ecut=    60.00 Ry     beta= 0.30
     Davidson diagonalization with overlap
     ethr =  1.84E-09,  avg # of iterations =  1.0

     negative rho (up, down):  3.565E-02 0.000E+00

     total cpu time spent up to now is     6194.1 secs

     total energy              =   -5283.69729700 Ry
     estimated scf accuracy    <       0.00000211 Ry

     iteration # 30     ecut=    60.00 Ry     beta= 0.30
     Davidson diagonalization with overlap
     ethr =  3.87E-10,  avg # of iterations =  1.0

     negative rho (up, down):  3.565E-02 0.000E+00

     total cpu time spent up to now is     6200.8 secs

     total energy              =   -5283.69729705 Ry
     estimated scf accuracy    <       0.00000099 Ry

     iteration # 31     ecut=    60.00 Ry     beta= 0.30
     Davidson diagonalization with overlap
     ethr =  1.81E-10,  avg # of iterations =  5.0

     negative rho (up, down):  3.565E-02 0.000E+00

     total cpu time spent up to now is     6209.2 secs

     total energy              =   -5283.69729692 Ry
     estimated scf accuracy    <       0.00000527 Ry

     iteration # 32     ecut=    60.00 Ry     beta= 0.30
     Davidson diagonalization with overlap
     ethr =  1.81E-10,  avg # of iterations =  5.0

     negative rho (up, down):  3.565E-02 0.000E+00

     total cpu time spent up to now is     6218.0 secs

     total energy              =   -5283.69729697 Ry
     estimated scf accuracy    <       0.00000488 Ry

     iteration # 33     ecut=    60.00 Ry     beta= 0.30
     Davidson diagonalization with overlap
     ethr =  1.81E-10,  avg # of iterations =  2.0

     negative rho (up, down):  3.565E-02 0.000E+00

     total cpu time spent up to now is     6225.3 secs

     total energy              =   -5283.69729708 Ry
     estimated scf accuracy    <       0.00000159 Ry

     iteration # 34     ecut=    60.00 Ry     beta= 0.30
     Davidson diagonalization with overlap
     ethr =  1.81E-10,  avg # of iterations =  2.0

     negative rho (up, down):  3.565E-02 0.000E+00

     total cpu time spent up to now is     6232.7 secs

     total energy              =   -5283.69729707 Ry
     estimated scf accuracy    <       0.00000348 Ry

     iteration # 35     ecut=    60.00 Ry     beta= 0.30
     Davidson diagonalization with overlap
     ethr =  1.81E-10,  avg # of iterations =  2.0

     negative rho (up, down):  3.565E-02 0.000E+00

     total cpu time spent up to now is     6239.8 secs

     total energy              =   -5283.69729712 Ry
     estimated scf accuracy    <       0.00000100 Ry

     iteration # 36     ecut=    60.00 Ry     beta= 0.30
     Davidson diagonalization with overlap
     ethr =  1.81E-10,  avg # of iterations =  2.0

     negative rho (up, down):  3.565E-02 0.000E+00

     total cpu time spent up to now is     6246.9 secs

     total energy              =   -5283.69729714 Ry
     estimated scf accuracy    <       0.00000067 Ry

     iteration # 37     ecut=    60.00 Ry     beta= 0.30
     Davidson diagonalization with overlap
     ethr =  1.24E-10,  avg # of iterations =  2.0

     negative rho (up, down):  3.565E-02 0.000E+00

     total cpu time spent up to now is     6254.1 secs

     total energy              =   -5283.69729712 Ry
     estimated scf accuracy    <       0.00000127 Ry

     iteration # 38     ecut=    60.00 Ry     beta= 0.30
     Davidson diagonalization with overlap
     ethr =  1.24E-10,  avg # of iterations =  2.0

     negative rho (up, down):  3.565E-02 0.000E+00

     total cpu time spent up to now is     6261.4 secs

     total energy              =   -5283.69729712 Ry
     estimated scf accuracy    <       0.00000154 Ry

     iteration # 39     ecut=    60.00 Ry     beta= 0.30
     Davidson diagonalization with overlap
     ethr =  1.24E-10,  avg # of iterations =  1.0

     negative rho (up, down):  3.565E-02 0.000E+00

     total cpu time spent up to now is     6268.0 secs

     total energy              =   -5283.69729716 Ry
     estimated scf accuracy    <       0.00000036 Ry

     iteration # 40     ecut=    60.00 Ry     beta= 0.30
     Davidson diagonalization with overlap
     ethr =  6.58E-11,  avg # of iterations =  1.0

     negative rho (up, down):  3.565E-02 0.000E+00

     total cpu time spent up to now is     6274.8 secs

     total energy              =   -5283.69729717 Ry
     estimated scf accuracy    <       0.00000009 Ry

     iteration # 41     ecut=    60.00 Ry     beta= 0.30
     Davidson diagonalization with overlap
     ethr =  1.57E-11,  avg # of iterations =  2.0

     negative rho (up, down):  3.565E-02 0.000E+00

     total cpu time spent up to now is     6282.2 secs

     total energy              =   -5283.69729716 Ry
     estimated scf accuracy    <       0.00000024 Ry

     iteration # 42     ecut=    60.00 Ry     beta= 0.30
     Davidson diagonalization with overlap
     ethr =  1.57E-11,  avg # of iterations =  2.0

     negative rho (up, down):  3.565E-02 0.000E+00

     total cpu time spent up to now is     6289.5 secs

     total energy              =   -5283.69729716 Ry
     estimated scf accuracy    <       0.00000020 Ry

     iteration # 43     ecut=    60.00 Ry     beta= 0.30
     Davidson diagonalization with overlap
     ethr =  1.57E-11,  avg # of iterations =  2.0

     negative rho (up, down):  3.565E-02 0.000E+00

     total cpu time spent up to now is     6296.8 secs

     total energy              =   -5283.69729717 Ry
     estimated scf accuracy    <       0.00000029 Ry

     iteration # 44     ecut=    60.00 Ry     beta= 0.30
     Davidson diagonalization with overlap
     ethr =  1.57E-11,  avg # of iterations =  1.0

     negative rho (up, down):  3.565E-02 0.000E+00

     total cpu time spent up to now is     6303.5 secs

     total energy              =   -5283.69729717 Ry
     estimated scf accuracy    <       0.00000024 Ry

     iteration # 45     ecut=    60.00 Ry     beta= 0.30
     Davidson diagonalization with overlap
     ethr =  1.57E-11,  avg # of iterations =  1.0

     negative rho (up, down):  3.565E-02 0.000E+00

     total cpu time spent up to now is     6309.8 secs

     total energy              =   -5283.69729717 Ry
     estimated scf accuracy    <       0.00000012 Ry

     iteration # 46     ecut=    60.00 Ry     beta= 0.30
     Davidson diagonalization with overlap
     ethr =  1.57E-11,  avg # of iterations =  1.0

     negative rho (up, down):  3.565E-02 0.000E+00

     total cpu time spent up to now is     6316.4 secs

     total energy              =   -5283.69729717 Ry
     estimated scf accuracy    <       0.00000006 Ry

     iteration # 47     ecut=    60.00 Ry     beta= 0.30
     Davidson diagonalization with overlap
     ethr =  1.18E-11,  avg # of iterations =  1.0

     negative rho (up, down):  3.565E-02 0.000E+00

     total cpu time spent up to now is     6322.9 secs

     total energy              =   -5283.69729717 Ry
     estimated scf accuracy    <       0.00000006 Ry

     iteration # 48     ecut=    60.00 Ry     beta= 0.30
     Davidson diagonalization with overlap
     ethr =  1.01E-11,  avg # of iterations =  1.0

     negative rho (up, down):  3.565E-02 0.000E+00

     total cpu time spent up to now is     6330.5 secs

     total energy              =   -5283.69729717 Ry
     estimated scf accuracy    <       0.00000006 Ry

     iteration # 49     ecut=    60.00 Ry     beta= 0.30
     Davidson diagonalization with overlap
     ethr =  1.01E-11,  avg # of iterations =  2.0

     negative rho (up, down):  3.565E-02 0.000E+00

     total cpu time spent up to now is     6337.5 secs

     total energy              =   -5283.69729717 Ry
     estimated scf accuracy    <       0.00000012 Ry

     iteration # 50     ecut=    60.00 Ry     beta= 0.30
     Davidson diagonalization with overlap
     ethr =  1.01E-11,  avg # of iterations =  1.0

     negative rho (up, down):  3.565E-02 0.000E+00

     total cpu time spent up to now is     6343.7 secs

     total energy              =   -5283.69729717 Ry
     estimated scf accuracy    <       0.00000003 Ry

     iteration # 51     ecut=    60.00 Ry     beta= 0.30
     Davidson diagonalization with overlap
     ethr =  5.15E-12,  avg # of iterations =  1.0

     negative rho (up, down):  3.565E-02 0.000E+00

     total cpu time spent up to now is     6352.3 secs

     total energy              =   -5283.69729718 Ry
     estimated scf accuracy    <       0.00000002 Ry

     iteration # 52     ecut=    60.00 Ry     beta= 0.30
     Davidson diagonalization with overlap
     ethr =  3.88E-12,  avg # of iterations =  1.0

     negative rho (up, down):  3.565E-02 0.000E+00

     total cpu time spent up to now is     6358.8 secs

     total energy              =   -5283.69729717 Ry
     estimated scf accuracy    <          6.0E-09 Ry

     iteration # 53     ecut=    60.00 Ry     beta= 0.30
     Davidson diagonalization with overlap
     ethr =  1.10E-12,  avg # of iterations =  2.0

     negative rho (up, down):  3.565E-02 0.000E+00

     total cpu time spent up to now is     6366.1 secs

     total energy              =   -5283.69729717 Ry
     estimated scf accuracy    <       0.00000004 Ry

     iteration # 54     ecut=    60.00 Ry     beta= 0.30
     Davidson diagonalization with overlap
     ethr =  1.10E-12,  avg # of iterations =  2.0

     negative rho (up, down):  3.565E-02 0.000E+00

     total cpu time spent up to now is     6373.2 secs

     total energy              =   -5283.69729718 Ry
     estimated scf accuracy    <       0.00000002 Ry

     iteration # 55     ecut=    60.00 Ry     beta= 0.30
     Davidson diagonalization with overlap
     ethr =  1.10E-12,  avg # of iterations =  2.0

     negative rho (up, down):  3.565E-02 0.000E+00

     total cpu time spent up to now is     6380.5 secs

     total energy              =   -5283.69729718 Ry
     estimated scf accuracy    <       0.00000002 Ry

     iteration # 56     ecut=    60.00 Ry     beta= 0.30
     Davidson diagonalization with overlap
     ethr =  1.10E-12,  avg # of iterations =  1.0

     negative rho (up, down):  3.565E-02 0.000E+00

     total cpu time spent up to now is     6387.2 secs

     total energy              =   -5283.69729718 Ry
     estimated scf accuracy    <          3.7E-09 Ry

     iteration # 57     ecut=    60.00 Ry     beta= 0.30
     Davidson diagonalization with overlap
     ethr =  6.78E-13,  avg # of iterations =  1.0

     negative rho (up, down):  3.565E-02 0.000E+00

     total cpu time spent up to now is     6393.8 secs

     End of self-consistent calculation

          k = 0.0000 0.0000 0.0000 ( 46961 PWs)   bands (ev):

   -69.6603 -69.5935 -69.5836 -69.5721 -69.5629 -69.5610 -69.5595 -69.5478
   -69.4972 -69.4912 -69.3276 -62.1569 -62.1423 -62.1392 -62.1100 -62.0850
   -62.0218 -62.0077 -62.0071 -61.8662 -61.7639 -54.4108 -54.3833 -54.2817
   -54.1274 -54.1160 -54.0919 -54.0547 -54.0529 -53.9993 -53.9816 -53.9762
   -41.0669 -41.0557 -41.0497 -41.0368 -41.0174 -41.0138 -41.0097 -40.9842
   -40.9767 -40.9657 -40.9642 -40.9484 -40.9439 -40.9354 -40.9150 -40.9077
   -40.9031 -40.8991 -40.8906 -40.8827 -40.8774 -40.8739 -40.8716 -40.8605
   -40.8435 -40.8299 -40.8246 -40.8160 -40.8084 -40.8079 -40.7752 -40.6789
   -40.5468 -36.1248 -36.0970 -36.0717 -36.0693 -36.0610 -36.0580 -36.0341
   -36.0055 -35.9964 -35.9916 -35.9808 -35.9633 -35.9545 -35.9454 -35.9376
   -35.9292 -35.9176 -35.8995 -35.8904 -35.8694 -35.8621 -35.8571 -35.8041
   -35.7850 -35.7649 -35.7273 -35.6758 -35.6706 -35.6154 -35.6056 -30.8463
   -30.7987 -30.7045 -30.6799 -30.6532 -30.6399 -30.6303 -30.6286 -30.5935
   -30.5642 -30.5444 -30.5389 -30.5210 -30.5053 -30.4936 -30.4904 -30.4792
   -30.4637 -30.4415 -30.4276 -30.3947 -30.3657 -30.3398 -30.3293 -30.3192
   -30.3071 -30.3019 -30.2704 -30.2578 -30.2331 -30.2049 -30.1693 -30.1253
   -10.8075  -9.7740  -9.3334  -9.2690  -9.1534  -9.0370  -8.6569  -8.4745
    -8.4119  -8.3954  -8.3542  -8.2471  -8.2328  -8.1363  -8.0647  -7.8739
    -7.8119  -7.7782  -7.6646  -7.6086  -7.5605  -7.5465  -7.4769  -7.4349
    -7.3794  -7.3488  -7.2356  -7.1352  -7.0037  -6.9549  -6.7752  -6.4436
    -4.0556  -3.9911  -3.9417  -3.8208  -3.1002  -2.9507  -2.7794  -2.7414
    -2.7140  -2.6615  -2.6482  -2.5644  -2.5075  -2.4545  -2.4512  -2.3164
    -2.1541  -2.1381  -2.0800  -1.9398  -1.9237  -1.8875  -1.8337  -1.7835
    -1.7105  -1.6303  -1.5772  -1.5148  -1.4984  -1.4753  -1.4398  -1.4356
    -1.4250  -1.4164  -1.4084  -1.3742  -1.3631  -1.3158  -1.3092  -1.2454
    -1.2297  -1.1923  -1.1287  -1.1223  -1.0594  -1.0192  -0.9898  -0.9771
    -0.9611  -0.8928  -0.8755  -0.8411  -0.7949  -0.7747  -0.7503  -0.7306
    -0.7138  -0.6857  -0.6773  -0.6439  -0.6126  -0.4805  -0.4421  -0.4135
    -0.3937  -0.3098  -0.2809  -0.2231  -0.2010  -0.1653  -0.1298  -0.0978
    -0.0696  -0.0245   0.0083   0.0253   0.0714   0.1919   0.2953   0.3626
     0.3857   0.5116   0.5563   0.6341   0.6736   0.7029   0.7916   0.9166
     0.9295   0.9671   1.0831   1.1619   1.2163   1.2330   1.3212   1.3465
     1.4668   1.5815   1.6171   1.6987   1.7078   1.8549   1.8896   2.1297
     2.2446   2.5524   2.6083   2.6649   2.7480   2.7926   2.8502   2.8739
     2.9412   3.0215   3.0355   3.0467   3.0606   3.1430   3.1663   3.1819
     3.1952   3.2384   3.2622   3.2802   3.2996   3.3373   3.3494   3.3989
     3.4225   3.4485   3.5085   3.5089   3.5220   3.5596   3.5804   3.6284
     3.6621   3.7519   3.7800   3.8255   3.8574   3.8859   3.9059   3.9482
     3.9782   4.0118   4.0533   4.0615   4.0839   4.1242   4.1581   4.1838
     4.2013   4.2408   4.2713   4.3497   4.3866   4.4381   4.4692   4.4998
     4.5285   4.5368   4.5737   4.6549   4.6916   4.7189

     the Fermi energy is     2.9173 ev

!    total energy              =   -5283.69729718 Ry
     estimated scf accuracy    <          1.6E-09 Ry
     smearing contrib. (-TS)   =      -0.03627552 Ry
     internal energy E=F+TS    =   -5283.66102165 Ry

     The total energy is F=E-TS. E is the sum of the following terms:
     one-electron contribution =  -55964.32462813 Ry
     hartree contribution      =   28005.78322920 Ry
     xc contribution           =    -787.65246732 Ry
     ewald contribution        =   23660.13606240 Ry
     one-center paw contrib.   =    -197.60321780 Ry

     convergence has been achieved in  57 iterations

     negative rho (up, down):  3.565E-02 0.000E+00

     Forces acting on atoms (cartesian axes, Ry/au):

     atom    1 type  1   force =    -0.00285101   -0.00849825    0.01206123
     atom    2 type  1   force =    -0.00877674   -0.00487569    0.00904306
     atom    3 type  1   force =     0.00121727   -0.00443956    0.00175325
     atom    4 type  1   force =    -0.00010936   -0.01627851    0.03143601
     atom    5 type  1   force =    -0.00459284    0.01273649    0.00230063
     atom    6 type  1   force =     0.00875611   -0.00159339    0.02759932
     atom    7 type  1   force =     0.00048782   -0.00129985   -0.00778485
     atom    8 type  1   force =    -0.00184121   -0.00284866   -0.00665898
     atom    9 type  1   force =     0.00273768    0.00486883   -0.00316225
     atom   10 type  1   force =     0.00032792    0.00669127    0.00872572
     atom   11 type  1   force =    -0.00607392    0.00787874    0.00240509
     atom   12 type  2   force =    -0.00648082    0.00493328    0.01989761
     atom   13 type  2   force =    -0.00549599    0.00105483    0.00441217
     atom   14 type  2   force =     0.02222893   -0.00822790    0.00926466
     atom   15 type  2   force =    -0.00959715    0.00203516    0.11434666
     atom   16 type  2   force =     0.00706737   -0.00065344    0.09560356
     atom   17 type  2   force =     0.00259723    0.00058832   -0.00111403
     atom   18 type  2   force =    -0.00284229   -0.00405679    0.00426654
     atom   19 type  2   force =    -0.00060587   -0.00021552   -0.00926289
     atom   20 type  2   force =     0.00164971   -0.00879543   -0.01121245
     atom   21 type  2   force =     0.00291575    0.02493538   -0.01271642
     atom   22 type  3   force =    -0.00770759    0.00730875    0.00949835
     atom   23 type  3   force =    -0.02144334   -0.01268641    0.00905540
     atom   24 type  3   force =     0.03066767    0.02128276   -0.01897971
     atom   25 type  3   force =     0.01344013   -0.01544011    0.06940005
     atom   26 type  3   force =    -0.00368809    0.01029052    0.12500031
     atom   27 type  3   force =     0.00271877    0.00021524   -0.00279949
     atom   28 type  3   force =    -0.00955807   -0.00101776    0.03465581
     atom   29 type  3   force =    -0.00354099    0.00388104    0.01081108
     atom   30 type  3   force =    -0.00755641   -0.00411207    0.00435501
     atom   31 type  3   force =     0.00897640   -0.00322483   -0.01588883
     atom   32 type  3   force =    -0.01382404   -0.00647808   -0.00634591
     atom   33 type  4   force =     0.00205458   -0.00746479   -0.03253593
     atom   34 type  4   force =     0.00984177    0.01263684   -0.00451049
     atom   35 type  4   force =    -0.00312494   -0.01749380   -0.01920516
     atom   36 type  4   force =     0.00099557    0.01124376   -0.03315587
     atom   37 type  4   force =    -0.00037384   -0.00254944   -0.01680549
     atom   38 type  4   force =    -0.00174681    0.00236180   -0.00814115
     atom   39 type  4   force =     0.00156946    0.00195356   -0.00799255
     atom   40 type  4   force =    -0.00101344    0.00349734   -0.00328320
     atom   41 type  4   force =    -0.00291596   -0.00235492    0.00135857
     atom   42 type  4   force =     0.00166713   -0.00377389   -0.00137354
     atom   43 type  4   force =     0.01175224   -0.00171575    0.00110742
     atom   44 type  4   force =     0.00605549   -0.00608206    0.00034479
     atom   45 type  4   force =     0.00243205    0.00761214   -0.03577107
     atom   46 type  4   force =     0.00248561    0.00183919   -0.04573205
     atom   47 type  4   force =    -0.01039408   -0.00172878   -0.01930112
     atom   48 type  4   force =    -0.01433117   -0.00768189   -0.02468763
     atom   49 type  4   force =     0.01218451   -0.00150505   -0.00493189
     atom   50 type  4   force =     0.00181749   -0.00324828   -0.00647375
     atom   51 type  4   force =     0.00924170   -0.00513975    0.00054515
     atom   52 type  4   force =     0.00325242    0.01195010   -0.00063856
     atom   53 type  4   force =    -0.00199675   -0.00650298   -0.02906092
     atom   54 type  4   force =    -0.00528919    0.00927385   -0.02747152
     atom   55 type  4   force =     0.00030644    0.00250322   -0.03147477
     atom   56 type  4   force =    -0.00097766   -0.00901544   -0.02752066
     atom   57 type  4   force =    -0.01682452    0.00853874   -0.02432469
     atom   58 type  4   force =    -0.00920499   -0.00692595   -0.03171836
     atom   59 type  4   force =     0.01485363    0.01502248   -0.03005478
     atom   60 type  4   force =     0.00227785   -0.01032023   -0.01879374
     atom   61 type  4   force =     0.00007794   -0.00028616   -0.01070950
     atom   62 type  4   force =    -0.00077922    0.00170883   -0.00255001
     atom   63 type  4   force =    -0.00277180   -0.00135772   -0.01117810
     atom   64 type  4   force =    -0.00032452    0.00104667   -0.00392517

     Total force =     0.056773     Total SCF correction =     0.000074
     Energy error            =      5.0E-03 Ry
     Gradient error          =      2.0E-02 Ry/Bohr

     number of scf cycles    =  15
     number of bfgs steps    =  14

     energy             old  =   -5283.6923430375 Ry
     energy             new  =   -5283.6972971752 Ry

     CASE: energy            _new < energy            _old

     new trust radius        =       0.0380193282 bohr
     new conv_thr            =       0.0000000020 Ry


ATOMIC_POSITIONS (angstrom)
Ti               8.3432628710        0.0103334833       15.7816415099
Ti               0.0291331002        8.3621570543       11.5803477355    0   0   0
Ti               2.0902060666        4.2139862485       13.6801571308
Ti               8.3795041056        2.0957563981        9.4724378689    0   0   0
Ti               8.3750099733        6.2687152092        9.4933225157    0   0   0
Ti               4.2170671874        6.2898439467        9.4911460380    0   0   0
Ti               8.3690291794        2.0910639250       13.6522552098
Ti               8.3913094792        6.2803673495       13.6498241412
Ti               4.2003444940        6.2507584986       13.6508445751
Ti               2.0968873197        6.2208568037       15.8022665612
Ti               6.2910739400        6.2123875024       15.7927009365
V                8.3554072319        4.0761228406       15.6628119833
V                4.1782839619        4.0446948256       15.6504672519
V                4.1453105473        4.2119457891       11.5975026988    0   0   0
V                2.1879867013        0.0520231596        9.5054883674    0   0   0
V                2.1522427348        4.1319303501        9.4904675789    0   0   0
V                2.1034523253        8.3513075100       13.6609815195
V                6.3135760195        4.2361590689       13.7182117340
V                4.1857951761        2.1056036193       13.5746617751
V                2.1048639148        6.2714192178       11.5723879270    0   0   0
V                6.3158808164        6.1438819511       11.5700667150    0   0   0
Cr               4.2357590280       -0.1056605133       15.5737967723
Cr               0.1179128009        4.1786640750       11.5195623927    0   0   0
Cr               4.1681598842        8.2577799257       11.6615352591    0   0   0
Cr               6.1999882077        0.1106418811        9.6948923906    0   0   0
Cr               6.2007452456        4.0563627707        9.3394942948    0   0   0
Cr               6.3075158805        8.2681723236       13.6003384348
Cr               4.2149984025        2.0754774019        9.7444374941    0   0   0
Cr               2.0678627606        2.0293408374       15.5798987456
Cr               6.2047438832        2.0270579038       15.5433320414
Cr               2.0054620409        2.1149661174       11.6192682974    0   0   0
Cr               6.3992485267        2.2488278238       11.6549867199    0   0   0
C                8.3671464633        0.0123762133        9.4921945368    0   0   0
C                8.3685510870        4.1683341954        9.4949958325    0   0   0
C                4.2233794382        0.0660683478        9.5137772640    0   0   0
C                4.2071394793        4.1170355077        9.4900603783    0   0   0
C                8.3690063285       -0.0042042435       13.7834799340
C                8.3635364525        4.1625944994       13.7600933280
C                4.2184692097       -0.0158651910       13.7193468493
C                4.2175498380        4.1110607157       13.7145803275
C                2.2472811858        0.1542436436       15.8953591212
C                2.1431514017        4.1659222213       15.9142158718
C                6.2294291707        0.1119536689       15.8986784885
C                6.2850611870        4.1519034112       15.8803199990
C                2.1521326937        0.0175132539       11.5903255372    0   0   0
C                2.1078429860        4.1683083653       11.5671868517    0   0   0
C                6.2417937451        0.0188099573       11.6002801854    0   0   0
C                6.3283074126        4.1569384024       11.5682471185    0   0   0
C                8.4417911355        2.1528453819       15.9274886544
C                8.4006747171        6.3285054551       16.0437583041
C                4.2437570040        2.1206501956       15.7460298493
C                4.2195955875        6.4203534415       15.9447795528
C                0.0147673152        2.1438801594       11.5939557114    0   0   0
C                0.0200697416        6.2277703895       11.5821679336    0   0   0
C                4.2182428542        2.0594943016       11.6100232202    0   0   0
C                4.2117703951        6.2583221129       11.5919858628    0   0   0
C                2.1713130363        2.0860319016        9.4919958919    0   0   0
C                2.1164500536        6.2753611976        9.5156635851    0   0   0
C                6.2203151227        2.0809934926        9.4961719556    0   0   0
C                6.2861737462        6.2618311600        9.5257047400    0   0   0
C                2.1244532886        2.0505151269       13.7397340634
C                2.1083307707        6.2862838321       13.7757913123
C                6.2559034310        2.0595499940       13.7039915766
C                6.3011275266        6.2362149493       13.7415412576



     Writing config-only to output data dir ./tmp/hec3_CrTiV_f100_CO_clean.save/ :
     XML data file
     NEW-OLD atomic charge density approx. for the potential

     Check: negative core charge=   -0.000005

     negative rho (up, down):  3.558E-02 0.000E+00

     total cpu time spent up to now is     6403.9 secs

     Self-consistent Calculation

     iteration #  1     ecut=    60.00 Ry     beta= 0.30
     Davidson diagonalization with overlap
     ethr =  1.00E-06,  avg # of iterations =  8.0

     negative rho (up, down):  3.555E-02 0.000E+00

     total cpu time spent up to now is     6415.7 secs

     total energy              =   -5283.69438611 Ry
     estimated scf accuracy    <       0.01350865 Ry

     iteration #  2     ecut=    60.00 Ry     beta= 0.30
     Davidson diagonalization with overlap
     ethr =  2.48E-06,  avg # of iterations = 19.0

     negative rho (up, down):  3.556E-02 0.000E+00

     total cpu time spent up to now is     6431.8 secs

     total energy              =   -5283.67154229 Ry
     estimated scf accuracy    <       1.05831381 Ry

     iteration #  3     ecut=    60.00 Ry     beta= 0.30
     Davidson diagonalization with overlap
     c_bands:  3 eigenvalues not converged
     ethr =  2.48E-06,  avg # of iterations = 20.0

     negative rho (up, down):  3.556E-02 0.000E+00

     total cpu time spent up to now is     6447.8 secs

     total energy              =   -5283.69308092 Ry
     estimated scf accuracy    <       0.35386016 Ry

     iteration #  4     ecut=    60.00 Ry     beta= 0.30
     Davidson diagonalization with overlap
     ethr =  2.48E-06,  avg # of iterations = 14.0

     negative rho (up, down):  3.555E-02 0.000E+00

     total cpu time spent up to now is     6460.6 secs

     total energy              =   -5283.69816123 Ry
     estimated scf accuracy    <       0.05705628 Ry

     iteration #  5     ecut=    60.00 Ry     beta= 0.30
     Davidson diagonalization with overlap
     ethr =  2.48E-06,  avg # of iterations =  2.0

     negative rho (up, down):  3.557E-02 0.000E+00

     total cpu time spent up to now is     6467.8 secs

     total energy              =   -5283.69936093 Ry
     estimated scf accuracy    <       0.00815882 Ry

     iteration #  6     ecut=    60.00 Ry     beta= 0.30
     Davidson diagonalization with overlap
     ethr =  1.50E-06,  avg # of iterations =  2.0

     negative rho (up, down):  3.557E-02 0.000E+00

     total cpu time spent up to now is     6475.1 secs

     total energy              =   -5283.69958317 Ry
     estimated scf accuracy    <       0.00690088 Ry

     iteration #  7     ecut=    60.00 Ry     beta= 0.30
     Davidson diagonalization with overlap
     ethr =  1.27E-06,  avg # of iterations =  1.0

     negative rho (up, down):  3.558E-02 0.000E+00

     total cpu time spent up to now is     6481.7 secs

     total energy              =   -5283.69970633 Ry
     estimated scf accuracy    <       0.00321060 Ry

     iteration #  8     ecut=    60.00 Ry     beta= 0.30
     Davidson diagonalization with overlap
     ethr =  5.90E-07,  avg # of iterations =  2.0

     negative rho (up, down):  3.558E-02 0.000E+00

     total cpu time spent up to now is     6489.1 secs

     total energy              =   -5283.69979554 Ry
     estimated scf accuracy    <       0.00140283 Ry

     iteration #  9     ecut=    60.00 Ry     beta= 0.30
     Davidson diagonalization with overlap
     ethr =  2.58E-07,  avg # of iterations =  2.0

     negative rho (up, down):  3.559E-02 0.000E+00

     total cpu time spent up to now is     6496.0 secs

     total energy              =   -5283.69982396 Ry
     estimated scf accuracy    <       0.00137427 Ry

     iteration # 10     ecut=    60.00 Ry     beta= 0.30
     Davidson diagonalization with overlap
     ethr =  2.53E-07,  avg # of iterations =  1.0

     negative rho (up, down):  3.559E-02 0.000E+00

     total cpu time spent up to now is     6502.6 secs

     total energy              =   -5283.69983602 Ry
     estimated scf accuracy    <       0.00103819 Ry

     iteration # 11     ecut=    60.00 Ry     beta= 0.30
     Davidson diagonalization with overlap
     ethr =  1.91E-07,  avg # of iterations =  1.0

     negative rho (up, down):  3.558E-02 0.000E+00

     total cpu time spent up to now is     6509.4 secs

     total energy              =   -5283.69987612 Ry
     estimated scf accuracy    <       0.00018814 Ry

     iteration # 12     ecut=    60.00 Ry     beta= 0.30
     Davidson diagonalization with overlap
     ethr =  3.46E-08,  avg # of iterations =  5.0

     negative rho (up, down):  3.559E-02 0.000E+00

     total cpu time spent up to now is     6518.0 secs

     total energy              =   -5283.69987019 Ry
     estimated scf accuracy    <       0.00028314 Ry

     iteration # 13     ecut=    60.00 Ry     beta= 0.30
     Davidson diagonalization with overlap
     ethr =  3.46E-08,  avg # of iterations =  4.0

     negative rho (up, down):  3.559E-02 0.000E+00

     total cpu time spent up to now is     6525.8 secs

     total energy              =   -5283.69984395 Ry
     estimated scf accuracy    <       0.00266933 Ry

     iteration # 14     ecut=    60.00 Ry     beta= 0.30
     Davidson diagonalization with overlap
     ethr =  3.46E-08,  avg # of iterations =  2.0

     negative rho (up, down):  3.559E-02 0.000E+00

     total cpu time spent up to now is     6532.8 secs

     total energy              =   -5283.69988542 Ry
     estimated scf accuracy    <       0.00018546 Ry

     iteration # 15     ecut=    60.00 Ry     beta= 0.30
     Davidson diagonalization with overlap
     ethr =  3.41E-08,  avg # of iterations =  1.0

     negative rho (up, down):  3.559E-02 0.000E+00

     total cpu time spent up to now is     6539.5 secs

     total energy              =   -5283.69988983 Ry
     estimated scf accuracy    <       0.00006498 Ry

     iteration # 16     ecut=    60.00 Ry     beta= 0.30
     Davidson diagonalization with overlap
     ethr =  1.19E-08,  avg # of iterations =  2.0

     negative rho (up, down):  3.559E-02 0.000E+00

     total cpu time spent up to now is     6547.0 secs

     total energy              =   -5283.69989025 Ry
     estimated scf accuracy    <       0.00002887 Ry

     iteration # 17     ecut=    60.00 Ry     beta= 0.30
     Davidson diagonalization with overlap
     ethr =  5.31E-09,  avg # of iterations =  2.0

     negative rho (up, down):  3.559E-02 0.000E+00

     total cpu time spent up to now is     6554.7 secs

     total energy              =   -5283.69988908 Ry
     estimated scf accuracy    <       0.00011507 Ry

     iteration # 18     ecut=    60.00 Ry     beta= 0.30
     Davidson diagonalization with overlap
     ethr =  5.31E-09,  avg # of iterations =  2.0

     negative rho (up, down):  3.559E-02 0.000E+00

     total cpu time spent up to now is     6562.2 secs

     total energy              =   -5283.69989092 Ry
     estimated scf accuracy    <       0.00005842 Ry

     iteration # 19     ecut=    60.00 Ry     beta= 0.30
     Davidson diagonalization with overlap
     ethr =  5.31E-09,  avg # of iterations =  1.0

     negative rho (up, down):  3.559E-02 0.000E+00

     total cpu time spent up to now is     6569.1 secs

     total energy              =   -5283.69989278 Ry
     estimated scf accuracy    <       0.00000486 Ry

     iteration # 20     ecut=    60.00 Ry     beta= 0.30
     Davidson diagonalization with overlap
     ethr =  8.93E-10,  avg # of iterations =  5.0

     negative rho (up, down):  3.559E-02 0.000E+00

     total cpu time spent up to now is     6577.4 secs

     total energy              =   -5283.69989266 Ry
     estimated scf accuracy    <       0.00000708 Ry

     iteration # 21     ecut=    60.00 Ry     beta= 0.30
     Davidson diagonalization with overlap
     ethr =  8.93E-10,  avg # of iterations =  5.0

     negative rho (up, down):  3.559E-02 0.000E+00

     total cpu time spent up to now is     6586.2 secs

     total energy              =   -5283.69989230 Ry
     estimated scf accuracy    <       0.00002572 Ry

     iteration # 22     ecut=    60.00 Ry     beta= 0.30
     Davidson diagonalization with overlap
     ethr =  8.93E-10,  avg # of iterations =  5.0

     negative rho (up, down):  3.559E-02 0.000E+00

     total cpu time spent up to now is     6594.6 secs

     total energy              =   -5283.69989313 Ry
     estimated scf accuracy    <       0.00000207 Ry

     iteration # 23     ecut=    60.00 Ry     beta= 0.30
     Davidson diagonalization with overlap
     ethr =  3.80E-10,  avg # of iterations =  5.0

     negative rho (up, down):  3.559E-02 0.000E+00

     total cpu time spent up to now is     6604.1 secs

     total energy              =   -5283.69989314 Ry
     estimated scf accuracy    <       0.00000309 Ry

     iteration # 24     ecut=    60.00 Ry     beta= 0.30
     Davidson diagonalization with overlap
     ethr =  3.80E-10,  avg # of iterations =  2.0

     negative rho (up, down):  3.559E-02 0.000E+00

     total cpu time spent up to now is     6611.1 secs

     total energy              =   -5283.69989316 Ry
     estimated scf accuracy    <       0.00000193 Ry

     iteration # 25     ecut=    60.00 Ry     beta= 0.30
     Davidson diagonalization with overlap
     ethr =  3.55E-10,  avg # of iterations =  2.0

     negative rho (up, down):  3.559E-02 0.000E+00

     total cpu time spent up to now is     6618.4 secs

     total energy              =   -5283.69989310 Ry
     estimated scf accuracy    <       0.00001018 Ry

     iteration # 26     ecut=    60.00 Ry     beta= 0.30
     Davidson diagonalization with overlap
     ethr =  3.55E-10,  avg # of iterations =  1.0

     negative rho (up, down):  3.559E-02 0.000E+00

     total cpu time spent up to now is     6625.3 secs

     total energy              =   -5283.69989324 Ry
     estimated scf accuracy    <       0.00000172 Ry

     iteration # 27     ecut=    60.00 Ry     beta= 0.30
     Davidson diagonalization with overlap
     ethr =  3.15E-10,  avg # of iterations =  1.0

     negative rho (up, down):  3.559E-02 0.000E+00

     total cpu time spent up to now is     6631.6 secs

     total energy              =   -5283.69989324 Ry
     estimated scf accuracy    <       0.00000220 Ry

     iteration # 28     ecut=    60.00 Ry     beta= 0.30
     Davidson diagonalization with overlap
     ethr =  3.15E-10,  avg # of iterations =  1.0

     negative rho (up, down):  3.559E-02 0.000E+00

     total cpu time spent up to now is     6638.4 secs

     total energy              =   -5283.69989328 Ry
     estimated scf accuracy    <       0.00000078 Ry

     iteration # 29     ecut=    60.00 Ry     beta= 0.30
     Davidson diagonalization with overlap
     ethr =  1.44E-10,  avg # of iterations =  1.0

     negative rho (up, down):  3.559E-02 0.000E+00

     total cpu time spent up to now is     6644.9 secs

     total energy              =   -5283.69989330 Ry
     estimated scf accuracy    <       0.00000028 Ry

     iteration # 30     ecut=    60.00 Ry     beta= 0.30
     Davidson diagonalization with overlap
     ethr =  5.13E-11,  avg # of iterations =  2.0

     negative rho (up, down):  3.559E-02 0.000E+00

     total cpu time spent up to now is     6652.2 secs

     total energy              =   -5283.69989331 Ry
     estimated scf accuracy    <       0.00000027 Ry

     iteration # 31     ecut=    60.00 Ry     beta= 0.30
     Davidson diagonalization with overlap
     ethr =  5.05E-11,  avg # of iterations =  2.0

     negative rho (up, down):  3.559E-02 0.000E+00

     total cpu time spent up to now is     6659.4 secs

     total energy              =   -5283.69989330 Ry
     estimated scf accuracy    <       0.00000038 Ry

     iteration # 32     ecut=    60.00 Ry     beta= 0.30
     Davidson diagonalization with overlap
     ethr =  5.05E-11,  avg # of iterations =  1.0

     negative rho (up, down):  3.559E-02 0.000E+00

     total cpu time spent up to now is     6666.5 secs

     total energy              =   -5283.69989331 Ry
     estimated scf accuracy    <       0.00000021 Ry

     iteration # 33     ecut=    60.00 Ry     beta= 0.30
     Davidson diagonalization with overlap
     ethr =  3.90E-11,  avg # of iterations =  1.0

     negative rho (up, down):  3.559E-02 0.000E+00

     total cpu time spent up to now is     6673.2 secs

     total energy              =   -5283.69989332 Ry
     estimated scf accuracy    <       0.00000006 Ry

     iteration # 34     ecut=    60.00 Ry     beta= 0.30
     Davidson diagonalization with overlap
     ethr =  1.16E-11,  avg # of iterations =  2.0

     negative rho (up, down):  3.559E-02 0.000E+00

     total cpu time spent up to now is     6680.3 secs

     total energy              =   -5283.69989332 Ry
     estimated scf accuracy    <       0.00000010 Ry

     iteration # 35     ecut=    60.00 Ry     beta= 0.30
     Davidson diagonalization with overlap
     ethr =  1.16E-11,  avg # of iterations =  5.0

     negative rho (up, down):  3.559E-02 0.000E+00

     total cpu time spent up to now is     6688.8 secs

     total energy              =   -5283.69989331 Ry
     estimated scf accuracy    <       0.00000083 Ry

     iteration # 36     ecut=    60.00 Ry     beta= 0.30
     Davidson diagonalization with overlap
     ethr =  1.16E-11,  avg # of iterations =  2.0

     negative rho (up, down):  3.559E-02 0.000E+00

     total cpu time spent up to now is     6696.1 secs

     total energy              =   -5283.69989332 Ry
     estimated scf accuracy    <       0.00000026 Ry

     iteration # 37     ecut=    60.00 Ry     beta= 0.30
     Davidson diagonalization with overlap
     ethr =  1.16E-11,  avg # of iterations =  2.0

     negative rho (up, down):  3.559E-02 0.000E+00

     total cpu time spent up to now is     6703.2 secs

     total energy              =   -5283.69989332 Ry
     estimated scf accuracy    <       0.00000006 Ry

     iteration # 38     ecut=    60.00 Ry     beta= 0.30
     Davidson diagonalization with overlap
     ethr =  1.05E-11,  avg # of iterations =  1.0

     negative rho (up, down):  3.559E-02 0.000E+00

     total cpu time spent up to now is     6709.7 secs

     total energy              =   -5283.69989332 Ry
     estimated scf accuracy    <       0.00000006 Ry

     iteration # 39     ecut=    60.00 Ry     beta= 0.30
     Davidson diagonalization with overlap
     ethr =  1.05E-11,  avg # of iterations =  1.0

     negative rho (up, down):  3.559E-02 0.000E+00

     total cpu time spent up to now is     6716.2 secs

     total energy              =   -5283.69989332 Ry
     estimated scf accuracy    <       0.00000003 Ry

     iteration # 40     ecut=    60.00 Ry     beta= 0.30
     Davidson diagonalization with overlap
     ethr =  5.44E-12,  avg # of iterations =  2.0

     negative rho (up, down):  3.559E-02 0.000E+00

     total cpu time spent up to now is     6723.4 secs

     total energy              =   -5283.69989333 Ry
     estimated scf accuracy    <       0.00000002 Ry

     iteration # 41     ecut=    60.00 Ry     beta= 0.30
     Davidson diagonalization with overlap
     ethr =  3.63E-12,  avg # of iterations =  1.0

     negative rho (up, down):  3.559E-02 0.000E+00

     total cpu time spent up to now is     6730.1 secs

     total energy              =   -5283.69989332 Ry
     estimated scf accuracy    <          9.0E-09 Ry

     iteration # 42     ecut=    60.00 Ry     beta= 0.30
     Davidson diagonalization with overlap
     ethr =  1.65E-12,  avg # of iterations =  2.0

     negative rho (up, down):  3.559E-02 0.000E+00

     total cpu time spent up to now is     6737.7 secs

     total energy              =   -5283.69989332 Ry
     estimated scf accuracy    <       0.00000003 Ry

     iteration # 43     ecut=    60.00 Ry     beta= 0.30
     Davidson diagonalization with overlap
     ethr =  1.65E-12,  avg # of iterations =  1.0

     negative rho (up, down):  3.559E-02 0.000E+00

     total cpu time spent up to now is     6744.5 secs

     total energy              =   -5283.69989333 Ry
     estimated scf accuracy    <          4.3E-09 Ry

     iteration # 44     ecut=    60.00 Ry     beta= 0.30
     Davidson diagonalization with overlap
     ethr =  7.90E-13,  avg # of iterations =  2.0

     negative rho (up, down):  3.559E-02 0.000E+00

     total cpu time spent up to now is     6751.6 secs

     total energy              =   -5283.69989333 Ry
     estimated scf accuracy    <          3.9E-09 Ry

     iteration # 45     ecut=    60.00 Ry     beta= 0.30
     Davidson diagonalization with overlap
     ethr =  7.19E-13,  avg # of iterations =  2.0

     negative rho (up, down):  3.559E-02 0.000E+00

     total cpu time spent up to now is     6758.8 secs

     total energy              =   -5283.69989333 Ry
     estimated scf accuracy    <       0.00000003 Ry

     iteration # 46     ecut=    60.00 Ry     beta= 0.30
     Davidson diagonalization with overlap
     ethr =  7.19E-13,  avg # of iterations =  2.0

     negative rho (up, down):  3.559E-02 0.000E+00

     total cpu time spent up to now is     6765.9 secs

     total energy              =   -5283.69989333 Ry
     estimated scf accuracy    <       0.00000002 Ry

     iteration # 47     ecut=    60.00 Ry     beta= 0.30
     Davidson diagonalization with overlap
     ethr =  7.19E-13,  avg # of iterations =  2.0

     negative rho (up, down):  3.559E-02 0.000E+00

     total cpu time spent up to now is     6772.8 secs

     total energy              =   -5283.69989332 Ry
     estimated scf accuracy    <          5.9E-09 Ry

     iteration # 48     ecut=    60.00 Ry     beta= 0.30
     Davidson diagonalization with overlap
     ethr =  7.19E-13,  avg # of iterations =  1.0

     negative rho (up, down):  3.559E-02 0.000E+00

     total cpu time spent up to now is     6779.6 secs

     total energy              =   -5283.69989333 Ry
     estimated scf accuracy    <          5.6E-09 Ry

     iteration # 49     ecut=    60.00 Ry     beta= 0.30
     Davidson diagonalization with overlap
     ethr =  7.19E-13,  avg # of iterations =  1.0

     negative rho (up, down):  3.559E-02 0.000E+00

     total cpu time spent up to now is     6787.1 secs

     total energy              =   -5283.69989332 Ry
     estimated scf accuracy    <          3.8E-09 Ry

     iteration # 50     ecut=    60.00 Ry     beta= 0.30
     Davidson diagonalization with overlap
     ethr =  7.05E-13,  avg # of iterations =  1.0

     negative rho (up, down):  3.559E-02 0.000E+00

     total cpu time spent up to now is     6793.6 secs

     total energy              =   -5283.69989333 Ry
     estimated scf accuracy    <          2.7E-09 Ry

     iteration # 51     ecut=    60.00 Ry     beta= 0.30
     Davidson diagonalization with overlap
     ethr =  5.01E-13,  avg # of iterations =  1.0

     negative rho (up, down):  3.559E-02 0.000E+00

     total cpu time spent up to now is     6800.0 secs

     End of self-consistent calculation

          k = 0.0000 0.0000 0.0000 ( 46961 PWs)   bands (ev):

   -69.6559 -69.5926 -69.5876 -69.5666 -69.5649 -69.5595 -69.5563 -69.5437
   -69.5118 -69.4942 -69.3233 -62.1537 -62.1369 -62.1342 -62.1043 -62.0809
   -62.0178 -62.0039 -62.0027 -61.8738 -61.7701 -54.4055 -54.3781 -54.2773
   -54.1218 -54.1129 -54.0862 -54.0510 -54.0485 -53.9991 -53.9807 -53.9705
   -41.0616 -41.0508 -41.0448 -41.0310 -41.0235 -41.0159 -41.0111 -40.9816
   -40.9759 -40.9711 -40.9600 -40.9444 -40.9411 -40.9359 -40.9267 -40.9044
   -40.8994 -40.8966 -40.8929 -40.8857 -40.8777 -40.8730 -40.8697 -40.8677
   -40.8394 -40.8333 -40.8313 -40.8267 -40.8125 -40.8042 -40.7708 -40.6752
   -40.5421 -36.1205 -36.0923 -36.0669 -36.0646 -36.0563 -36.0529 -36.0310
   -35.9994 -35.9924 -35.9871 -35.9767 -35.9607 -35.9501 -35.9405 -35.9336
   -35.9250 -35.9131 -35.8952 -35.8858 -35.8655 -35.8575 -35.8528 -35.8061
   -35.7804 -35.7683 -35.7318 -35.6779 -35.6729 -35.6238 -35.6101 -30.8406
   -30.7930 -30.7000 -30.6749 -30.6480 -30.6353 -30.6252 -30.6251 -30.5892
   -30.5590 -30.5400 -30.5346 -30.5170 -30.5007 -30.4892 -30.4851 -30.4744
   -30.4616 -30.4365 -30.4227 -30.3926 -30.3645 -30.3385 -30.3252 -30.3171
   -30.3030 -30.2977 -30.2669 -30.2527 -30.2317 -30.2000 -30.1696 -30.1263
   -10.8066  -9.7749  -9.3302  -9.2675  -9.1498  -9.0360  -8.6581  -8.4759
    -8.4105  -8.3956  -8.3531  -8.2439  -8.2305  -8.1320  -8.0621  -7.8725
    -7.8073  -7.7764  -7.6603  -7.6044  -7.5569  -7.5431  -7.4760  -7.4374
    -7.3844  -7.3624  -7.2377  -7.1443  -6.9993  -6.9508  -6.7764  -6.4541
    -4.0520  -3.9908  -3.9422  -3.8149  -3.0965  -2.9473  -2.7822  -2.7426
    -2.7147  -2.6641  -2.6458  -2.5629  -2.5056  -2.4497  -2.4488  -2.3121
    -2.1526  -2.1377  -2.0761  -1.9354  -1.9207  -1.8834  -1.8321  -1.7795
    -1.7095  -1.6249  -1.5784  -1.5120  -1.4938  -1.4738  -1.4370  -1.4318
    -1.4220  -1.4131  -1.4051  -1.3690  -1.3605  -1.3154  -1.3053  -1.2488
    -1.2301  -1.1863  -1.1261  -1.1220  -1.0550  -1.0226  -0.9905  -0.9782
    -0.9576  -0.8937  -0.8733  -0.8481  -0.7955  -0.7725  -0.7499  -0.7335
    -0.7134  -0.6862  -0.6747  -0.6417  -0.6116  -0.4851  -0.4461  -0.4282
    -0.3915  -0.3163  -0.2851  -0.2305  -0.2032  -0.1655  -0.1339  -0.0948
    -0.0714  -0.0236   0.0126   0.0258   0.0718   0.1981   0.2977   0.3656
     0.3899   0.5089   0.5576   0.6414   0.6742   0.7072   0.7891   0.9128
     0.9339   0.9703   1.0885   1.1640   1.2211   1.2371   1.3252   1.3499
     1.4670   1.5849   1.6203   1.7036   1.7135   1.8582   1.8887   2.1335
     2.2563   2.5569   2.6117   2.6683   2.7514   2.7981   2.8500   2.8777
     2.9475   3.0252   3.0413   3.0536   3.0638   3.1463   3.1667   3.1833
     3.2040   3.2399   3.2638   3.2860   3.3025   3.3407   3.3475   3.3999
     3.4240   3.4424   3.5069   3.5096   3.5202   3.5660   3.5824   3.6261
     3.6650   3.7539   3.7817   3.8214   3.8603   3.8868   3.9076   3.9513
     3.9807   4.0151   4.0491   4.0631   4.0858   4.1242   4.1637   4.1831
     4.2018   4.2411   4.2695   4.3542   4.3962   4.4470   4.4678   4.5071
     4.5236   4.5455   4.5771   4.6396   4.6897   4.7207

     the Fermi energy is     2.9211 ev

!    total energy              =   -5283.69989333 Ry
     estimated scf accuracy    <          8.7E-10 Ry
     smearing contrib. (-TS)   =      -0.03605410 Ry
     internal energy E=F+TS    =   -5283.66383922 Ry

     The total energy is F=E-TS. E is the sum of the following terms:
     one-electron contribution =  -55971.07602330 Ry
     hartree contribution      =   28009.19246100 Ry
     xc contribution           =    -787.65124040 Ry
     ewald contribution        =   23663.47398835 Ry
     one-center paw contrib.   =    -197.60302488 Ry

     convergence has been achieved in  51 iterations

     negative rho (up, down):  3.559E-02 0.000E+00

     Forces acting on atoms (cartesian axes, Ry/au):

     atom    1 type  1   force =    -0.00195081   -0.00618104    0.00863374
     atom    2 type  1   force =    -0.00878354   -0.00532061    0.00848996
     atom    3 type  1   force =     0.00087957   -0.00337133    0.00255485
     atom    4 type  1   force =     0.00000799   -0.01622099    0.03120825
     atom    5 type  1   force =    -0.00456904    0.01278603    0.00214546
     atom    6 type  1   force =     0.00881686   -0.00175095    0.02758681
     atom    7 type  1   force =     0.00067469    0.00077953   -0.00277981
     atom    8 type  1   force =    -0.00139049   -0.00368520   -0.00487976
     atom    9 type  1   force =     0.00217917    0.00402364   -0.00426546
     atom   10 type  1   force =    -0.00484755    0.00316386    0.00926785
     atom   11 type  1   force =    -0.00218409    0.00315907    0.00374686
     atom   12 type  2   force =    -0.00541999    0.00113045    0.01336520
     atom   13 type  2   force =    -0.00609703   -0.00939259    0.00245216
     atom   14 type  2   force =     0.02214074   -0.00729994    0.00919707
     atom   15 type  2   force =    -0.00977409    0.00216789    0.11417246
     atom   16 type  2   force =     0.00704412   -0.00079157    0.09549407
     atom   17 type  2   force =     0.00197450    0.00099421   -0.00076151
     atom   18 type  2   force =    -0.00266951   -0.00426914    0.00468055
     atom   19 type  2   force =     0.00026225    0.00045126   -0.00449303
     atom   20 type  2   force =     0.00216132   -0.00884746   -0.01101009
     atom   21 type  2   force =     0.00261415    0.02494023   -0.01256644
     atom   22 type  3   force =    -0.00841899    0.00508529    0.00634566
     atom   23 type  3   force =    -0.02162069   -0.01237051    0.00856934
     atom   24 type  3   force =     0.03015786    0.02052801   -0.01910575
     atom   25 type  3   force =     0.01370736   -0.01514392    0.06930758
     atom   26 type  3   force =    -0.00383180    0.01031495    0.12508734
     atom   27 type  3   force =     0.00368274   -0.00061387   -0.00282338
     atom   28 type  3   force =    -0.00958928   -0.00107616    0.03361085
     atom   29 type  3   force =    -0.00632590    0.00305826    0.00752921
     atom   30 type  3   force =    -0.00935569   -0.00452503    0.00274467
     atom   31 type  3   force =     0.00897165   -0.00333081   -0.01675662
     atom   32 type  3   force =    -0.01325234   -0.00651487   -0.00704167
     atom   33 type  4   force =     0.00208924   -0.00746969   -0.03273584
     atom   34 type  4   force =     0.00988767    0.01260574   -0.00428996
     atom   35 type  4   force =    -0.00310958   -0.01742394   -0.01891260
     atom   36 type  4   force =     0.00107622    0.01117251   -0.03344592
     atom   37 type  4   force =    -0.00013465   -0.00261121   -0.01568953
     atom   38 type  4   force =    -0.00221820    0.00220902   -0.00723187
     atom   39 type  4   force =     0.00110971    0.00109476   -0.00858638
     atom   40 type  4   force =    -0.00084168    0.00417419   -0.00159089
     atom   41 type  4   force =     0.00033186   -0.00190821    0.00185033
     atom   42 type  4   force =     0.00582428    0.00160417   -0.00007626
     atom   43 type  4   force =     0.00794062    0.00020604    0.00137652
     atom   44 type  4   force =     0.00387203    0.00052765    0.00080064
     atom   45 type  4   force =     0.00292159    0.00713758   -0.03604963
     atom   46 type  4   force =     0.00231305    0.00194234   -0.04564782
     atom   47 type  4   force =    -0.01054185   -0.00199109   -0.01970175
     atom   48 type  4   force =    -0.01442755   -0.00760141   -0.02454962
     atom   49 type  4   force =     0.01463174    0.00042449   -0.00158966
     atom   50 type  4   force =     0.00365563   -0.00305955   -0.00397267
     atom   51 type  4   force =     0.00931659    0.00119003    0.00131708
     atom   52 type  4   force =     0.00244775    0.01011610    0.00098337
     atom   53 type  4   force =    -0.00194077   -0.00651486   -0.03086191
     atom   54 type  4   force =    -0.00526229    0.00912689   -0.02781396
     atom   55 type  4   force =     0.00030036    0.00283514   -0.03310769
     atom   56 type  4   force =    -0.00102339   -0.00859091   -0.02706639
     atom   57 type  4   force =    -0.01679214    0.00849947   -0.02445059
     atom   58 type  4   force =    -0.00928549   -0.00692837   -0.03126834
     atom   59 type  4   force =     0.01478648    0.01489864   -0.03015205
     atom   60 type  4   force =     0.00229191   -0.01037221   -0.01861622
     atom   61 type  4   force =    -0.00065014    0.00043035   -0.00746012
     atom   62 type  4   force =    -0.00144331    0.00189532   -0.00585103
     atom   63 type  4   force =    -0.00265219   -0.00082426   -0.00929294
     atom   64 type  4   force =     0.00033233    0.00132858   -0.00602273

     Total force =     0.048831     Total SCF correction =     0.000078
     Energy error            =      2.6E-03 Ry
     Gradient error          =      1.6E-02 Ry/Bohr

     number of scf cycles    =  16
     number of bfgs steps    =  15

     energy             old  =   -5283.6972971752 Ry
     energy             new  =   -5283.6998933258 Ry

     CASE: energy            _new < energy            _old

     new trust radius        =       0.0418212610 bohr
     new conv_thr            =       0.0000000016 Ry


ATOMIC_POSITIONS (angstrom)
Ti               8.3397942986        0.0006919295       15.7848843470
Ti               0.0291331002        8.3621570543       11.5803477355    0   0   0
Ti               2.0901991941        4.2106341795       13.6820778914
Ti               8.3795041056        2.0957563981        9.4724378689    0   0   0
Ti               8.3750099733        6.2687152092        9.4933225157    0   0   0
Ti               4.2170671874        6.2898439467        9.4911460380    0   0   0
Ti               8.3696857879        2.0886083954       13.6491352356
Ti               8.3907349824        6.2795738916       13.6491567212
Ti               4.2019007965        6.2548798895       13.6532332020
Ti               2.0992521542        6.2241719775       15.8054270721
Ti               6.2794446429        6.2175424286       15.7899951596
V                8.3417215408        4.0749494825       15.6706550843
V                4.1719546544        4.0445098967       15.6513944677
V                4.1453105473        4.2119457891       11.5975026988    0   0   0
V                2.1879867013        0.0520231596        9.5054883674    0   0   0
V                2.1522427348        4.1319303501        9.4904675789    0   0   0
V                2.1063212394        8.3522722533       13.6607994295
V                6.3124892853        4.2319562070       13.7177504265
V                4.1860801937        2.1053080136       13.5681551068
V                2.1048639148        6.2714192178       11.5723879270    0   0   0
V                6.3158808164        6.1438819511       11.5700667150    0   0   0
Cr               4.2272876543       -0.0860242307       15.5794912539
Cr               0.1179128009        4.1786640750       11.5195623927    0   0   0
Cr               4.1681598842        8.2577799257       11.6615352591    0   0   0
Cr               6.1999882077        0.1106418811        9.6948923906    0   0   0
Cr               6.2007452456        4.0563627707        9.3394942948    0   0   0
Cr               6.3080161737        8.2725186745       13.5974581448
Cr               4.2149984025        2.0754774019        9.7444374941    0   0   0
Cr               2.0592710604        2.0249991301       15.5817980013
Cr               6.1953672908        2.0134859769       15.5431631421
Cr               2.0054620409        2.1149661174       11.6192682974    0   0   0
Cr               6.3992485267        2.2488278238       11.6549867199    0   0   0
C                8.3671464633        0.0123762133        9.4921945368    0   0   0
C                8.3685510870        4.1683341954        9.4949958325    0   0   0
C                4.2233794382        0.0660683478        9.5137772640    0   0   0
C                4.2071394793        4.1170355077        9.4900603783    0   0   0
C                8.3694065166       -0.0061647454       13.7773222625
C                8.3619452003        4.1622344381       13.7625771145
C                4.2192833761       -0.0115953583       13.7223721263
C                4.2163805803        4.1119756584       13.7124721778
C                2.2439067377        0.1548002990       15.8931628921
C                2.1457199059        4.1649979976       15.9141121845
C                6.2479589170        0.1113238294       15.8968011539
C                6.2923297726        4.1489871509       15.8829307632
C                2.1521326937        0.0175132539       11.5903255372    0   0   0
C                2.1078429860        4.1683083653       11.5671868517    0   0   0
C                6.2417937451        0.0188099573       11.6002801854    0   0   0
C                6.3283074126        4.1569384024       11.5682471185    0   0   0
C                8.4602569708        2.1509728952       15.9154472485
C                8.4030638114        6.3300611493       16.0353855866
C                4.2549159571        2.1215085776       15.7444692893
C                4.2240742031        6.4359479447       15.9456012347
C                0.0147673152        2.1438801594       11.5939557114    0   0   0
C                0.0200697416        6.2277703895       11.5821679336    0   0   0
C                4.2182428542        2.0594943016       11.6100232202    0   0   0
C                4.2117703951        6.2583221129       11.5919858628    0   0   0
C                2.1713130363        2.0860319016        9.4919958919    0   0   0
C                2.1164500536        6.2753611976        9.5156635851    0   0   0
C                6.2203151227        2.0809934926        9.4961719556    0   0   0
C                6.2861737462        6.2618311600        9.5257047400    0   0   0
C                2.1239147568        2.0484549513       13.7330856005
C                2.1091429901        6.2857893413       13.7800970350
C                6.2536129701        2.0569520391       13.6980626837
C                6.2994724753        6.2362200028       13.7423540741



     Writing config-only to output data dir ./tmp/hec3_CrTiV_f100_CO_clean.save/ :
     XML data file
     NEW-OLD atomic charge density approx. for the potential

     Check: negative core charge=   -0.000005

     negative rho (up, down):  3.546E-02 0.000E+00

     total cpu time spent up to now is     6810.1 secs

     Self-consistent Calculation

     iteration #  1     ecut=    60.00 Ry     beta= 0.30
     Davidson diagonalization with overlap
     ethr =  1.00E-06,  avg # of iterations =  7.0

     negative rho (up, down):  3.544E-02 0.000E+00

     total cpu time spent up to now is     6821.5 secs

     total energy              =   -5283.69828220 Ry
     estimated scf accuracy    <       0.01219132 Ry

     iteration #  2     ecut=    60.00 Ry     beta= 0.30
     Davidson diagonalization with overlap
     ethr =  2.24E-06,  avg # of iterations = 20.0

     negative rho (up, down):  3.544E-02 0.000E+00

     total cpu time spent up to now is     6837.7 secs

     total energy              =   -5283.68491370 Ry
     estimated scf accuracy    <       0.54366335 Ry

     iteration #  3     ecut=    60.00 Ry     beta= 0.30
     Davidson diagonalization with overlap
     c_bands:  1 eigenvalues not converged
     ethr =  2.24E-06,  avg # of iterations = 20.0

     negative rho (up, down):  3.542E-02 0.000E+00

     total cpu time spent up to now is     6853.8 secs

     total energy              =   -5283.69737451 Ry
     estimated scf accuracy    <       0.26264819 Ry

     iteration #  4     ecut=    60.00 Ry     beta= 0.30
     Davidson diagonalization with overlap
     ethr =  2.24E-06,  avg # of iterations = 11.0

     negative rho (up, down):  3.543E-02 0.000E+00

     total cpu time spent up to now is     6865.2 secs

     total energy              =   -5283.70125380 Ry
     estimated scf accuracy    <       0.04921270 Ry

     iteration #  5     ecut=    60.00 Ry     beta= 0.30
     Davidson diagonalization with overlap
     ethr =  2.24E-06,  avg # of iterations =  2.0

     negative rho (up, down):  3.544E-02 0.000E+00

     total cpu time spent up to now is     6872.6 secs

     total energy              =   -5283.70221253 Ry
     estimated scf accuracy    <       0.00885522 Ry

     iteration #  6     ecut=    60.00 Ry     beta= 0.30
     Davidson diagonalization with overlap
     ethr =  1.63E-06,  avg # of iterations =  2.0

     negative rho (up, down):  3.544E-02 0.000E+00

     total cpu time spent up to now is     6879.7 secs

     total energy              =   -5283.70231996 Ry
     estimated scf accuracy    <       0.00991585 Ry

     iteration #  7     ecut=    60.00 Ry     beta= 0.30
     Davidson diagonalization with overlap
     ethr =  1.63E-06,  avg # of iterations =  1.0

     negative rho (up, down):  3.545E-02 0.000E+00

     total cpu time spent up to now is     6885.9 secs

     total energy              =   -5283.70247666 Ry
     estimated scf accuracy    <       0.00580424 Ry

     iteration #  8     ecut=    60.00 Ry     beta= 0.30
     Davidson diagonalization with overlap
     ethr =  1.07E-06,  avg # of iterations =  1.0

     negative rho (up, down):  3.545E-02 0.000E+00

     total cpu time spent up to now is     6892.6 secs

     total energy              =   -5283.70257163 Ry
     estimated scf accuracy    <       0.00364179 Ry

     iteration #  9     ecut=    60.00 Ry     beta= 0.30
     Davidson diagonalization with overlap
     ethr =  6.69E-07,  avg # of iterations =  1.0

     negative rho (up, down):  3.546E-02 0.000E+00

     total cpu time spent up to now is     6899.2 secs

     total energy              =   -5283.70265848 Ry
     estimated scf accuracy    <       0.00160451 Ry

     iteration # 10     ecut=    60.00 Ry     beta= 0.30
     Davidson diagonalization with overlap
     ethr =  2.95E-07,  avg # of iterations =  2.0

     negative rho (up, down):  3.546E-02 0.000E+00

     total cpu time spent up to now is     6906.4 secs

     total energy              =   -5283.70269316 Ry
     estimated scf accuracy    <       0.00063034 Ry

     iteration # 11     ecut=    60.00 Ry     beta= 0.30
     Davidson diagonalization with overlap
     ethr =  1.16E-07,  avg # of iterations =  2.0

     negative rho (up, down):  3.546E-02 0.000E+00

     total cpu time spent up to now is     6913.5 secs

     total energy              =   -5283.70271001 Ry
     estimated scf accuracy    <       0.00077657 Ry

     iteration # 12     ecut=    60.00 Ry     beta= 0.30
     Davidson diagonalization with overlap
     ethr =  1.16E-07,  avg # of iterations =  1.0

     negative rho (up, down):  3.546E-02 0.000E+00

     total cpu time spent up to now is     6920.1 secs

     total energy              =   -5283.70272267 Ry
     estimated scf accuracy    <       0.00029653 Ry

     iteration # 13     ecut=    60.00 Ry     beta= 0.30
     Davidson diagonalization with overlap
     ethr =  5.45E-08,  avg # of iterations =  2.0

     negative rho (up, down):  3.546E-02 0.000E+00

     total cpu time spent up to now is     6926.9 secs

     total energy              =   -5283.70271082 Ry
     estimated scf accuracy    <       0.00153762 Ry

     iteration # 14     ecut=    60.00 Ry     beta= 0.30
     Davidson diagonalization with overlap
     ethr =  5.45E-08,  avg # of iterations =  1.0

     negative rho (up, down):  3.546E-02 0.000E+00

     total cpu time spent up to now is     6933.8 secs

     total energy              =   -5283.70273713 Ry
     estimated scf accuracy    <       0.00047338 Ry

     iteration # 15     ecut=    60.00 Ry     beta= 0.30
     Davidson diagonalization with overlap
     ethr =  5.45E-08,  avg # of iterations =  1.0

     negative rho (up, down):  3.546E-02 0.000E+00

     total cpu time spent up to now is     6940.6 secs

     total energy              =   -5283.70274556 Ry
     estimated scf accuracy    <       0.00006471 Ry

     iteration # 16     ecut=    60.00 Ry     beta= 0.30
     Davidson diagonalization with overlap
     ethr =  1.19E-08,  avg # of iterations =  2.0

     negative rho (up, down):  3.546E-02 0.000E+00

     total cpu time spent up to now is     6948.2 secs

     total energy              =   -5283.70274589 Ry
     estimated scf accuracy    <       0.00006330 Ry

     iteration # 17     ecut=    60.00 Ry     beta= 0.30
     Davidson diagonalization with overlap
     ethr =  1.16E-08,  avg # of iterations =  1.0

     negative rho (up, down):  3.546E-02 0.000E+00

     total cpu time spent up to now is     6954.6 secs

     total energy              =   -5283.70274687 Ry
     estimated scf accuracy    <       0.00007321 Ry

     iteration # 18     ecut=    60.00 Ry     beta= 0.30
     Davidson diagonalization with overlap
     ethr =  1.16E-08,  avg # of iterations =  1.0

     negative rho (up, down):  3.546E-02 0.000E+00

     total cpu time spent up to now is     6961.0 secs

     total energy              =   -5283.70274756 Ry
     estimated scf accuracy    <       0.00004524 Ry

     iteration # 19     ecut=    60.00 Ry     beta= 0.30
     Davidson diagonalization with overlap
     ethr =  8.32E-09,  avg # of iterations =  1.0

     negative rho (up, down):  3.546E-02 0.000E+00

     total cpu time spent up to now is     6967.5 secs

     total energy              =   -5283.70274836 Ry
     estimated scf accuracy    <       0.00002740 Ry

     iteration # 20     ecut=    60.00 Ry     beta= 0.30
     Davidson diagonalization with overlap
     ethr =  5.04E-09,  avg # of iterations =  1.0

     negative rho (up, down):  3.546E-02 0.000E+00

     total cpu time spent up to now is     6974.0 secs

     total energy              =   -5283.70274865 Ry
     estimated scf accuracy    <       0.00001355 Ry

     iteration # 21     ecut=    60.00 Ry     beta= 0.30
     Davidson diagonalization with overlap
     ethr =  2.49E-09,  avg # of iterations =  2.0

     negative rho (up, down):  3.546E-02 0.000E+00

     total cpu time spent up to now is     6981.2 secs

     total energy              =   -5283.70274842 Ry
     estimated scf accuracy    <       0.00003238 Ry

     iteration # 22     ecut=    60.00 Ry     beta= 0.30
     Davidson diagonalization with overlap
     ethr =  2.49E-09,  avg # of iterations =  1.0

     negative rho (up, down):  3.546E-02 0.000E+00

     total cpu time spent up to now is     6988.2 secs

     total energy              =   -5283.70274947 Ry
     estimated scf accuracy    <       0.00000406 Ry

     iteration # 23     ecut=    60.00 Ry     beta= 0.30
     Davidson diagonalization with overlap
     ethr =  7.46E-10,  avg # of iterations =  2.0

     negative rho (up, down):  3.546E-02 0.000E+00

     total cpu time spent up to now is     6995.5 secs

     total energy              =   -5283.70274927 Ry
     estimated scf accuracy    <       0.00001407 Ry

     iteration # 24     ecut=    60.00 Ry     beta= 0.30
     Davidson diagonalization with overlap
     ethr =  7.46E-10,  avg # of iterations =  2.0

     negative rho (up, down):  3.546E-02 0.000E+00

     total cpu time spent up to now is     7002.7 secs

     total energy              =   -5283.70274903 Ry
     estimated scf accuracy    <       0.00003733 Ry

     iteration # 25     ecut=    60.00 Ry     beta= 0.30
     Davidson diagonalization with overlap
     ethr =  7.46E-10,  avg # of iterations =  2.0

     negative rho (up, down):  3.546E-02 0.000E+00

     total cpu time spent up to now is     7009.9 secs

     total energy              =   -5283.70274951 Ry
     estimated scf accuracy    <       0.00000602 Ry

     iteration # 26     ecut=    60.00 Ry     beta= 0.30
     Davidson diagonalization with overlap
     ethr =  7.46E-10,  avg # of iterations =  2.0

     negative rho (up, down):  3.546E-02 0.000E+00

     total cpu time spent up to now is     7017.2 secs

     total energy              =   -5283.70274961 Ry
     estimated scf accuracy    <       0.00000313 Ry

     iteration # 27     ecut=    60.00 Ry     beta= 0.30
     Davidson diagonalization with overlap
     ethr =  5.75E-10,  avg # of iterations =  2.0

     negative rho (up, down):  3.546E-02 0.000E+00

     total cpu time spent up to now is     7024.3 secs

     total energy              =   -5283.70274960 Ry
     estimated scf accuracy    <       0.00000709 Ry

     iteration # 28     ecut=    60.00 Ry     beta= 0.30
     Davidson diagonalization with overlap
     ethr =  5.75E-10,  avg # of iterations =  1.0

     negative rho (up, down):  3.546E-02 0.000E+00

     total cpu time spent up to now is     7030.9 secs

     total energy              =   -5283.70274973 Ry
     estimated scf accuracy    <       0.00000197 Ry

     iteration # 29     ecut=    60.00 Ry     beta= 0.30
     Davidson diagonalization with overlap
     ethr =  3.62E-10,  avg # of iterations =  1.0

     negative rho (up, down):  3.546E-02 0.000E+00

     total cpu time spent up to now is     7037.6 secs

     total energy              =   -5283.70274976 Ry
     estimated scf accuracy    <       0.00000147 Ry

     iteration # 30     ecut=    60.00 Ry     beta= 0.30
     Davidson diagonalization with overlap
     ethr =  2.69E-10,  avg # of iterations =  1.0

     negative rho (up, down):  3.546E-02 0.000E+00

     total cpu time spent up to now is     7044.4 secs

     total energy              =   -5283.70274979 Ry
     estimated scf accuracy    <       0.00000078 Ry

     iteration # 31     ecut=    60.00 Ry     beta= 0.30
     Davidson diagonalization with overlap
     ethr =  1.43E-10,  avg # of iterations =  2.0

     negative rho (up, down):  3.546E-02 0.000E+00

     total cpu time spent up to now is     7051.6 secs

     total energy              =   -5283.70274976 Ry
     estimated scf accuracy    <       0.00000158 Ry

     iteration # 32     ecut=    60.00 Ry     beta= 0.30
     Davidson diagonalization with overlap
     ethr =  1.43E-10,  avg # of iterations =  1.0

     negative rho (up, down):  3.546E-02 0.000E+00

     total cpu time spent up to now is     7058.0 secs

     total energy              =   -5283.70274981 Ry
     estimated scf accuracy    <       0.00000056 Ry

     iteration # 33     ecut=    60.00 Ry     beta= 0.30
     Davidson diagonalization with overlap
     ethr =  1.03E-10,  avg # of iterations =  1.0

     negative rho (up, down):  3.546E-02 0.000E+00

     total cpu time spent up to now is     7064.5 secs

     total energy              =   -5283.70274982 Ry
     estimated scf accuracy    <       0.00000040 Ry

     iteration # 34     ecut=    60.00 Ry     beta= 0.30
     Davidson diagonalization with overlap
     ethr =  7.31E-11,  avg # of iterations =  1.0

     negative rho (up, down):  3.546E-02 0.000E+00

     total cpu time spent up to now is     7071.1 secs

     total energy              =   -5283.70274981 Ry
     estimated scf accuracy    <       0.00000164 Ry

     iteration # 35     ecut=    60.00 Ry     beta= 0.30
     Davidson diagonalization with overlap
     ethr =  7.31E-11,  avg # of iterations =  1.0

     negative rho (up, down):  3.546E-02 0.000E+00

     total cpu time spent up to now is     7077.7 secs

     total energy              =   -5283.70274982 Ry
     estimated scf accuracy    <       0.00000054 Ry

     iteration # 36     ecut=    60.00 Ry     beta= 0.30
     Davidson diagonalization with overlap
     ethr =  7.31E-11,  avg # of iterations =  2.0

     negative rho (up, down):  3.546E-02 0.000E+00

     total cpu time spent up to now is     7085.2 secs

     total energy              =   -5283.70274982 Ry
     estimated scf accuracy    <       0.00000061 Ry

     iteration # 37     ecut=    60.00 Ry     beta= 0.30
     Davidson diagonalization with overlap
     ethr =  7.31E-11,  avg # of iterations =  1.0

     negative rho (up, down):  3.546E-02 0.000E+00

     total cpu time spent up to now is     7091.7 secs

     total energy              =   -5283.70274982 Ry
     estimated scf accuracy    <       0.00000063 Ry

     iteration # 38     ecut=    60.00 Ry     beta= 0.30
     Davidson diagonalization with overlap
     ethr =  7.31E-11,  avg # of iterations =  1.0

     negative rho (up, down):  3.546E-02 0.000E+00

     total cpu time spent up to now is     7098.3 secs

     total energy              =   -5283.70274984 Ry
     estimated scf accuracy    <       0.00000019 Ry

     iteration # 39     ecut=    60.00 Ry     beta= 0.30
     Davidson diagonalization with overlap
     ethr =  3.51E-11,  avg # of iterations =  1.0

     negative rho (up, down):  3.546E-02 0.000E+00

     total cpu time spent up to now is     7104.6 secs

     total energy              =   -5283.70274984 Ry
     estimated scf accuracy    <       0.00000010 Ry

     iteration # 40     ecut=    60.00 Ry     beta= 0.30
     Davidson diagonalization with overlap
     ethr =  1.92E-11,  avg # of iterations =  1.0

     negative rho (up, down):  3.546E-02 0.000E+00

     total cpu time spent up to now is     7111.1 secs

     total energy              =   -5283.70274984 Ry
     estimated scf accuracy    <       0.00000007 Ry

     iteration # 41     ecut=    60.00 Ry     beta= 0.30
     Davidson diagonalization with overlap
     ethr =  1.32E-11,  avg # of iterations =  1.0

     negative rho (up, down):  3.546E-02 0.000E+00

     total cpu time spent up to now is     7117.6 secs

     total energy              =   -5283.70274984 Ry
     estimated scf accuracy    <       0.00000004 Ry

     iteration # 42     ecut=    60.00 Ry     beta= 0.30
     Davidson diagonalization with overlap
     ethr =  7.95E-12,  avg # of iterations =  2.0

     negative rho (up, down):  3.546E-02 0.000E+00

     total cpu time spent up to now is     7124.8 secs

     total energy              =   -5283.70274984 Ry
     estimated scf accuracy    <       0.00000007 Ry

     iteration # 43     ecut=    60.00 Ry     beta= 0.30
     Davidson diagonalization with overlap
     ethr =  7.95E-12,  avg # of iterations =  1.0

     negative rho (up, down):  3.546E-02 0.000E+00

     total cpu time spent up to now is     7131.3 secs

     total energy              =   -5283.70274985 Ry
     estimated scf accuracy    <       0.00000003 Ry

     iteration # 44     ecut=    60.00 Ry     beta= 0.30
     Davidson diagonalization with overlap
     ethr =  4.71E-12,  avg # of iterations =  1.0

     negative rho (up, down):  3.546E-02 0.000E+00

     total cpu time spent up to now is     7138.0 secs

     total energy              =   -5283.70274984 Ry
     estimated scf accuracy    <       0.00000004 Ry

     iteration # 45     ecut=    60.00 Ry     beta= 0.30
     Davidson diagonalization with overlap
     ethr =  4.71E-12,  avg # of iterations =  1.0

     negative rho (up, down):  3.546E-02 0.000E+00

     total cpu time spent up to now is     7144.9 secs

     total energy              =   -5283.70274985 Ry
     estimated scf accuracy    <       0.00000006 Ry

     iteration # 46     ecut=    60.00 Ry     beta= 0.30
     Davidson diagonalization with overlap
     ethr =  4.71E-12,  avg # of iterations =  2.0

     negative rho (up, down):  3.546E-02 0.000E+00

     total cpu time spent up to now is     7152.3 secs

     total energy              =   -5283.70274984 Ry
     estimated scf accuracy    <       0.00000004 Ry

     iteration # 47     ecut=    60.00 Ry     beta= 0.30
     Davidson diagonalization with overlap
     ethr =  4.71E-12,  avg # of iterations =  1.0

     negative rho (up, down):  3.546E-02 0.000E+00

     total cpu time spent up to now is     7158.7 secs

     total energy              =   -5283.70274985 Ry
     estimated scf accuracy    <       0.00000004 Ry

     iteration # 48     ecut=    60.00 Ry     beta= 0.30
     Davidson diagonalization with overlap
     ethr =  4.71E-12,  avg # of iterations =  1.0

     negative rho (up, down):  3.546E-02 0.000E+00

     total cpu time spent up to now is     7165.2 secs

     total energy              =   -5283.70274985 Ry
     estimated scf accuracy    <       0.00000002 Ry

     iteration # 49     ecut=    60.00 Ry     beta= 0.30
     Davidson diagonalization with overlap
     ethr =  3.68E-12,  avg # of iterations =  1.0

     negative rho (up, down):  3.546E-02 0.000E+00

     total cpu time spent up to now is     7171.5 secs

     total energy              =   -5283.70274985 Ry
     estimated scf accuracy    <       0.00000001 Ry

     iteration # 50     ecut=    60.00 Ry     beta= 0.30
     Davidson diagonalization with overlap
     ethr =  2.40E-12,  avg # of iterations =  1.0

     negative rho (up, down):  3.546E-02 0.000E+00

     total cpu time spent up to now is     7178.1 secs

     total energy              =   -5283.70274985 Ry
     estimated scf accuracy    <       0.00000001 Ry

     iteration # 51     ecut=    60.00 Ry     beta= 0.30
     Davidson diagonalization with overlap
     ethr =  2.18E-12,  avg # of iterations =  1.0

     negative rho (up, down):  3.546E-02 0.000E+00

     total cpu time spent up to now is     7184.5 secs

     total energy              =   -5283.70274985 Ry
     estimated scf accuracy    <          4.7E-09 Ry

     iteration # 52     ecut=    60.00 Ry     beta= 0.30
     Davidson diagonalization with overlap
     ethr =  8.68E-13,  avg # of iterations =  1.0

     negative rho (up, down):  3.546E-02 0.000E+00

     total cpu time spent up to now is     7190.9 secs

     total energy              =   -5283.70274985 Ry
     estimated scf accuracy    <          4.1E-09 Ry

     iteration # 53     ecut=    60.00 Ry     beta= 0.30
     Davidson diagonalization with overlap
     ethr =  7.55E-13,  avg # of iterations =  1.0

     negative rho (up, down):  3.546E-02 0.000E+00

     total cpu time spent up to now is     7197.4 secs

     total energy              =   -5283.70274985 Ry
     estimated scf accuracy    <          4.1E-09 Ry

     iteration # 54     ecut=    60.00 Ry     beta= 0.30
     Davidson diagonalization with overlap
     ethr =  7.52E-13,  avg # of iterations =  1.0

     negative rho (up, down):  3.546E-02 0.000E+00

     total cpu time spent up to now is     7204.4 secs

     total energy              =   -5283.70274985 Ry
     estimated scf accuracy    <          3.3E-09 Ry

     iteration # 55     ecut=    60.00 Ry     beta= 0.30
     Davidson diagonalization with overlap
     ethr =  6.07E-13,  avg # of iterations =  1.0

     negative rho (up, down):  3.546E-02 0.000E+00

     total cpu time spent up to now is     7211.2 secs

     total energy              =   -5283.70274985 Ry
     estimated scf accuracy    <          4.6E-09 Ry

     iteration # 56     ecut=    60.00 Ry     beta= 0.30
     Davidson diagonalization with overlap
     ethr =  6.07E-13,  avg # of iterations =  1.0

     negative rho (up, down):  3.546E-02 0.000E+00

     total cpu time spent up to now is     7217.7 secs

     End of self-consistent calculation

          k = 0.0000 0.0000 0.0000 ( 46961 PWs)   bands (ev):

   -69.6491 -69.5952 -69.5792 -69.5628 -69.5581 -69.5533 -69.5480 -69.5370
   -69.5343 -69.4885 -69.3157 -62.1486 -62.1286 -62.1262 -62.0966 -62.0734
   -62.0113 -61.9978 -61.9951 -61.8667 -61.7749 -54.3972 -54.3696 -54.2697
   -54.1129 -54.1089 -54.0779 -54.0480 -54.0424 -54.0013 -53.9803 -53.9600
   -41.0539 -41.0437 -41.0370 -41.0250 -41.0225 -41.0131 -41.0068 -40.9835
   -40.9740 -40.9679 -40.9532 -40.9478 -40.9375 -40.9336 -40.9216 -40.9104
   -40.8979 -40.8922 -40.8859 -40.8826 -40.8778 -40.8702 -40.8631 -40.8608
   -40.8526 -40.8423 -40.8328 -40.8198 -40.8058 -40.7968 -40.7633 -40.6679
   -40.5343 -36.1141 -36.0848 -36.0592 -36.0569 -36.0487 -36.0450 -36.0262
   -35.9911 -35.9858 -35.9797 -35.9697 -35.9561 -35.9425 -35.9325 -35.9265
   -35.9180 -35.9054 -35.8880 -35.8777 -35.8588 -35.8498 -35.8451 -35.7988
   -35.7727 -35.7640 -35.7276 -35.6766 -35.6655 -35.6330 -35.6120 -30.8321
   -30.7838 -30.6922 -30.6670 -30.6399 -30.6273 -30.6188 -30.6169 -30.5817
   -30.5514 -30.5323 -30.5292 -30.5107 -30.4932 -30.4821 -30.4769 -30.4671
   -30.4575 -30.4295 -30.4156 -30.3896 -30.3639 -30.3364 -30.3230 -30.3121
   -30.2983 -30.2918 -30.2619 -30.2474 -30.2300 -30.1934 -30.1706 -30.1274
   -10.8022  -9.7719  -9.3233  -9.2626  -9.1427  -9.0314  -8.6571  -8.4731
    -8.4050  -8.3938  -8.3468  -8.2367  -8.2239  -8.1225  -8.0559  -7.8676
    -7.7990  -7.7703  -7.6523  -7.5962  -7.5500  -7.5363  -7.4732  -7.4389
    -7.3884  -7.3773  -7.2359  -7.1477  -6.9912  -6.9432  -6.7746  -6.4643
    -4.0456  -3.9860  -3.9384  -3.8069  -3.0891  -2.9414  -2.7853  -2.7407
    -2.7123  -2.6607  -2.6393  -2.5578  -2.4999  -2.4433  -2.4408  -2.3046
    -2.1478  -2.1341  -2.0683  -1.9276  -1.9143  -1.8761  -1.8271  -1.7738
    -1.7030  -1.6160  -1.5746  -1.5062  -1.4876  -1.4701  -1.4306  -1.4251
    -1.4153  -1.4060  -1.3991  -1.3614  -1.3565  -1.3141  -1.3007  -1.2553
    -1.2230  -1.1757  -1.1269  -1.1161  -1.0481  -1.0239  -0.9924  -0.9708
    -0.9511  -0.8929  -0.8674  -0.8508  -0.7929  -0.7660  -0.7457  -0.7333
    -0.7068  -0.6834  -0.6687  -0.6358  -0.6127  -0.4930  -0.4639  -0.4291
    -0.3817  -0.3167  -0.2849  -0.2420  -0.2023  -0.1596  -0.1284  -0.0899
    -0.0739  -0.0201   0.0204   0.0265   0.0754   0.2065   0.3009   0.3678
     0.3909   0.5066   0.5653   0.6464   0.6759   0.7148   0.7875   0.9093
     0.9410   0.9775   1.0889   1.1696   1.2292   1.2495   1.3349   1.3568
     1.4692   1.5875   1.6283   1.7113   1.7181   1.8664   1.8930   2.1394
     2.2210   2.5644   2.6178   2.6740   2.7573   2.8077   2.8514   2.8840
     2.9565   3.0310   3.0492   3.0630   3.0707   3.1536   3.1687   3.1895
     3.2200   3.2430   3.2699   3.2996   3.3085   3.3435   3.3501   3.4041
     3.4292   3.4399   3.5077   3.5132   3.5288   3.5777   3.5865   3.6257
     3.6754   3.7610   3.7863   3.8279   3.8674   3.8902   3.9133   3.9576
     3.9865   4.0200   4.0525   4.0677   4.0939   4.1289   4.1725   4.1863
     4.2059   4.2453   4.2738   4.3607   4.4042   4.4556   4.4712   4.5173
     4.5218   4.5557   4.5845   4.6279   4.6941   4.7307

     the Fermi energy is     2.9279 ev

!    total energy              =   -5283.70274985 Ry
     estimated scf accuracy    <          1.5E-09 Ry
     smearing contrib. (-TS)   =      -0.03633394 Ry
     internal energy E=F+TS    =   -5283.66641591 Ry

     The total energy is F=E-TS. E is the sum of the following terms:
     one-electron contribution =  -55966.56828997 Ry
     hartree contribution      =   28007.02723325 Ry
     xc contribution           =    -787.65803930 Ry
     ewald contribution        =   23661.13582784 Ry
     one-center paw contrib.   =    -197.60314773 Ry

     convergence has been achieved in  56 iterations

     negative rho (up, down):  3.546E-02 0.000E+00

     Forces acting on atoms (cartesian axes, Ry/au):

     atom    1 type  1   force =     0.00012819   -0.00193344    0.00276365
     atom    2 type  1   force =    -0.00867044   -0.00575862    0.00799630
     atom    3 type  1   force =     0.00040440   -0.00167963    0.00285737
     atom    4 type  1   force =     0.00019138   -0.01614078    0.03095714
     atom    5 type  1   force =    -0.00454605    0.01285553    0.00194333
     atom    6 type  1   force =     0.00890209   -0.00184287    0.02756096
     atom    7 type  1   force =     0.00056160    0.00236339    0.00089406
     atom    8 type  1   force =    -0.00060409   -0.00430354   -0.00384942
     atom    9 type  1   force =     0.00115377    0.00282154   -0.00456010
     atom   10 type  1   force =    -0.00743846    0.00236839    0.00653765
     atom   11 type  1   force =     0.00060527    0.00162205    0.00338242
     atom   12 type  2   force =    -0.00418857    0.00071391    0.00570468
     atom   13 type  2   force =    -0.00627358   -0.01093441    0.00112476
     atom   14 type  2   force =     0.02194860   -0.00645700    0.00906589
     atom   15 type  2   force =    -0.00991387    0.00236331    0.11396254
     atom   16 type  2   force =     0.00704596   -0.00092962    0.09538858
     atom   17 type  2   force =     0.00087759    0.00062800   -0.00031173
     atom   18 type  2   force =    -0.00230529   -0.00344586    0.00533311
     atom   19 type  2   force =     0.00095519    0.00134991   -0.00211398
     atom   20 type  2   force =     0.00271297   -0.00876098   -0.01077178
     atom   21 type  2   force =     0.00242038    0.02475665   -0.01247654
     atom   22 type  3   force =    -0.01099732    0.00447363    0.00114234
     atom   23 type  3   force =    -0.02179268   -0.01209023    0.00819013
     atom   24 type  3   force =     0.02960073    0.02034901   -0.01953217
     atom   25 type  3   force =     0.01390007   -0.01484126    0.06895957
     atom   26 type  3   force =    -0.00400357    0.01035219    0.12517615
     atom   27 type  3   force =     0.00447487   -0.00141541   -0.00290458
     atom   28 type  3   force =    -0.00966611   -0.00106016    0.03251933
     atom   29 type  3   force =    -0.00678620    0.00514588    0.00389133
     atom   30 type  3   force =    -0.00830503   -0.00284140    0.00030096
     atom   31 type  3   force =     0.00915582   -0.00345608   -0.01789335
     atom   32 type  3   force =    -0.01278052   -0.00679165   -0.00784756
     atom   33 type  4   force =     0.00213822   -0.00752259   -0.03302479
     atom   34 type  4   force =     0.00989997    0.01258789   -0.00408009
     atom   35 type  4   force =    -0.00302081   -0.01734135   -0.01865163
     atom   36 type  4   force =     0.00122473    0.01111020   -0.03373739
     atom   37 type  4   force =     0.00026275   -0.00224979   -0.01182698
     atom   38 type  4   force =    -0.00250881    0.00161148   -0.00476652
     atom   39 type  4   force =     0.00069911    0.00112524   -0.00753580
     atom   40 type  4   force =    -0.00081977    0.00407770   -0.00007369
     atom   41 type  4   force =     0.00300267   -0.00386651    0.00266393
     atom   42 type  4   force =     0.00890392    0.00293780    0.00166693
     atom   43 type  4   force =     0.00292402    0.00067503    0.00258982
     atom   44 type  4   force =     0.00182020    0.00296005    0.00159812
     atom   45 type  4   force =     0.00353426    0.00661022   -0.03630295
     atom   46 type  4   force =     0.00198328    0.00201163   -0.04529533
     atom   47 type  4   force =    -0.01066963   -0.00228874   -0.01999424
     atom   48 type  4   force =    -0.01442933   -0.00753048   -0.02440921
     atom   49 type  4   force =     0.01569938   -0.00015609    0.00146743
     atom   50 type  4   force =     0.00417615   -0.00536697   -0.00158965
     atom   51 type  4   force =     0.00818705    0.00085116    0.00317676
     atom   52 type  4   force =     0.00185734    0.00521991    0.00226122
     atom   53 type  4   force =    -0.00189930   -0.00654213   -0.03218263
     atom   54 type  4   force =    -0.00522528    0.00887643   -0.02788524
     atom   55 type  4   force =     0.00020691    0.00291202   -0.03416235
     atom   56 type  4   force =    -0.00113667   -0.00848323   -0.02643068
     atom   57 type  4   force =    -0.01680947    0.00846028   -0.02455660
     atom   58 type  4   force =    -0.00937555   -0.00691165   -0.03084689
     atom   59 type  4   force =     0.01471917    0.01476968   -0.03025048
     atom   60 type  4   force =     0.00229978   -0.01033162   -0.01852973
     atom   61 type  4   force =    -0.00108719    0.00139250   -0.00353678
     atom   62 type  4   force =    -0.00164315    0.00178721   -0.00673764
     atom   63 type  4   force =    -0.00230750   -0.00022073   -0.00616320
     atom   64 type  4   force =     0.00062646    0.00135501   -0.00624471

     Total force =     0.042198     Total SCF correction =     0.000076
     Energy error            =      2.9E-03 Ry
     Gradient error          =      1.6E-02 Ry/Bohr

     number of scf cycles    =  17
     number of bfgs steps    =  16

     energy             old  =   -5283.6998933258 Ry
     energy             new  =   -5283.7027498457 Ry

     CASE: energy            _new < energy            _old

     new trust radius        =       0.0627318915 bohr
     new conv_thr            =       0.0000000016 Ry


ATOMIC_POSITIONS (angstrom)
Ti               8.3366556632       -0.0121515507       15.7879767290
Ti               0.0291331002        8.3621570543       11.5803477355    0   0   0
Ti               2.0900930894        4.2062757100       13.6864617282
Ti               8.3795041056        2.0957563981        9.4724378689    0   0   0
Ti               8.3750099733        6.2687152092        9.4933225157    0   0   0
Ti               4.2170671874        6.2898439467        9.4911460380    0   0   0
Ti               8.3707472520        2.0874653112       13.6451880159
Ti               8.3898233763        6.2757714168       13.6447494250
Ti               4.2041263151        6.2615275801       13.6526085696
Ti               2.0982724983        6.2303489343       15.8108198358
Ti               6.2660290474        6.2255842204       15.7873738946
V                8.3238048055        4.0752427043       15.6811480131
V                4.1607140296        4.0409599348       15.6528236729
V                4.1453105473        4.2119457891       11.5975026988    0   0   0
V                2.1879867013        0.0520231596        9.5054883674    0   0   0
V                2.1522427348        4.1319303501        9.4904675789    0   0   0
V                2.1090325622        8.3536259744       13.6603508491
V                6.3100588460        4.2255242959       13.7220683890
V                4.1866347458        2.1063392906       13.5575239011
V                2.1048639148        6.2714192178       11.5723879270    0   0   0
V                6.3158808164        6.1438819511       11.5700667150    0   0   0
Cr               4.2088440043       -0.0638998684       15.5843465730
Cr               0.1179128009        4.1786640750       11.5195623927    0   0   0
Cr               4.1681598842        8.2577799257       11.6615352591    0   0   0
Cr               6.1999882077        0.1106418811        9.6948923906    0   0   0
Cr               6.2007452456        4.0563627707        9.3394942948    0   0   0
Cr               6.3122903651        8.2766028993       13.5919772233
Cr               4.2149984025        2.0754774019        9.7444374941    0   0   0
Cr               2.0466829225        2.0246604414       15.5852253983
Cr               6.1803035891        1.9968688290       15.5419036453
Cr               2.0054620409        2.1149661174       11.6192682974    0   0   0
Cr               6.3992485267        2.2488278238       11.6549867199    0   0   0
C                8.3671464633        0.0123762133        9.4921945368    0   0   0
C                8.3685510870        4.1683341954        9.4949958325    0   0   0
C                4.2233794382        0.0660683478        9.5137772640    0   0   0
C                4.2071394793        4.1170355077        9.4900603783    0   0   0
C                8.3701572470       -0.0098004716       13.7645472999
C                8.3585103904        4.1623979691       13.7641477017
C                4.2208996679       -0.0053927309       13.7220223038
C                4.2143738389        4.1151798422       13.7103120418
C                2.2409504490        0.1518786404       15.8935418535
C                2.1537371586        4.1646860174       15.9154293576
C                6.2708549178        0.1109459378       15.8974799510
C                6.3021329306        4.1464096025       15.8871928873
C                2.1521326937        0.0175132539       11.5903255372    0   0   0
C                2.1078429860        4.1683083653       11.5671868517    0   0   0
C                6.2417937451        0.0188099573       11.6002801854    0   0   0
C                6.3283074126        4.1569384024       11.5682471185    0   0   0
C                8.4908939087        2.1486384848       15.9028805441
C                8.4077187405        6.3275563696       16.0241474052
C                4.2725615189        2.1201719966       15.7459825442
C                4.2306463052        6.4585729120       15.9473534536
C                0.0147673152        2.1438801594       11.5939557114    0   0   0
C                0.0200697416        6.2277703895       11.5821679336    0   0   0
C                4.2182428542        2.0594943016       11.6100232202    0   0   0
C                4.2117703951        6.2583221129       11.5919858628    0   0   0
C                2.1713130363        2.0860319016        9.4919958919    0   0   0
C                2.1164500536        6.2753611976        9.5156635851    0   0   0
C                6.2203151227        2.0809934926        9.4961719556    0   0   0
C                6.2861737462        6.2618311600        9.5257047400    0   0   0
C                2.1231864180        2.0471024087       13.7241541305
C                2.1093982190        6.2861287049       13.7824168076
C                6.2493855637        2.0539558858       13.6880417448
C                6.2976652516        6.2368693093       13.7405356628



     Writing config-only to output data dir ./tmp/hec3_CrTiV_f100_CO_clean.save/ :
     XML data file
     NEW-OLD atomic charge density approx. for the potential

     Check: negative core charge=   -0.000005

     negative rho (up, down):  3.499E-02 0.000E+00

     total cpu time spent up to now is     7227.6 secs

     Self-consistent Calculation

     iteration #  1     ecut=    60.00 Ry     beta= 0.30
     Davidson diagonalization with overlap
     ethr =  1.00E-06,  avg # of iterations =  8.0

     negative rho (up, down):  3.496E-02 0.000E+00

     total cpu time spent up to now is     7239.9 secs

     total energy              =   -5283.69946258 Ry
     estimated scf accuracy    <       0.01917441 Ry

     iteration #  2     ecut=    60.00 Ry     beta= 0.30
     Davidson diagonalization with overlap
     ethr =  3.52E-06,  avg # of iterations = 18.0

     negative rho (up, down):  3.496E-02 0.000E+00

     total cpu time spent up to now is     7256.1 secs

     total energy              =   -5283.68059612 Ry
     estimated scf accuracy    <       0.71295924 Ry

     iteration #  3     ecut=    60.00 Ry     beta= 0.30
     Davidson diagonalization with overlap
     c_bands:  2 eigenvalues not converged
     ethr =  3.52E-06,  avg # of iterations = 20.0

     negative rho (up, down):  3.496E-02 0.000E+00

     total cpu time spent up to now is     7271.8 secs

     total energy              =   -5283.69861724 Ry
     estimated scf accuracy    <       0.32193418 Ry

     iteration #  4     ecut=    60.00 Ry     beta= 0.30
     Davidson diagonalization with overlap
     ethr =  3.52E-06,  avg # of iterations = 20.0

     negative rho (up, down):  3.496E-02 0.000E+00

     total cpu time spent up to now is     7287.8 secs

     total energy              =   -5283.70316515 Ry
     estimated scf accuracy    <       0.09396961 Ry

     iteration #  5     ecut=    60.00 Ry     beta= 0.30
     Davidson diagonalization with overlap
     ethr =  3.52E-06,  avg # of iterations =  2.0

     negative rho (up, down):  3.498E-02 0.000E+00

     total cpu time spent up to now is     7295.1 secs

     total energy              =   -5283.70473674 Ry
     estimated scf accuracy    <       0.02853952 Ry

     iteration #  6     ecut=    60.00 Ry     beta= 0.30
     Davidson diagonalization with overlap
     ethr =  3.52E-06,  avg # of iterations =  2.0

     negative rho (up, down):  3.498E-02 0.000E+00

     total cpu time spent up to now is     7302.2 secs

     total energy              =   -5283.70500419 Ry
     estimated scf accuracy    <       0.02082086 Ry

     iteration #  7     ecut=    60.00 Ry     beta= 0.30
     Davidson diagonalization with overlap
     ethr =  3.52E-06,  avg # of iterations =  1.0

     negative rho (up, down):  3.499E-02 0.000E+00

     total cpu time spent up to now is     7309.0 secs

     total energy              =   -5283.70540039 Ry
     estimated scf accuracy    <       0.00938984 Ry

     iteration #  8     ecut=    60.00 Ry     beta= 0.30
     Davidson diagonalization with overlap
     ethr =  1.73E-06,  avg # of iterations =  1.0

     negative rho (up, down):  3.498E-02 0.000E+00

     total cpu time spent up to now is     7315.4 secs

     total energy              =   -5283.70558493 Ry
     estimated scf accuracy    <       0.00589751 Ry

     iteration #  9     ecut=    60.00 Ry     beta= 0.30
     Davidson diagonalization with overlap
     ethr =  1.08E-06,  avg # of iterations =  2.0

     negative rho (up, down):  3.499E-02 0.000E+00

     total cpu time spent up to now is     7322.6 secs

     total energy              =   -5283.70572127 Ry
     estimated scf accuracy    <       0.00360351 Ry

     iteration # 10     ecut=    60.00 Ry     beta= 0.30
     Davidson diagonalization with overlap
     ethr =  6.62E-07,  avg # of iterations =  1.0

     negative rho (up, down):  3.499E-02 0.000E+00

     total cpu time spent up to now is     7329.1 secs

     total energy              =   -5283.70581225 Ry
     estimated scf accuracy    <       0.00088007 Ry

     iteration # 11     ecut=    60.00 Ry     beta= 0.30
     Davidson diagonalization with overlap
     ethr =  1.62E-07,  avg # of iterations =  2.0

     negative rho (up, down):  3.499E-02 0.000E+00

     total cpu time spent up to now is     7336.7 secs

     total energy              =   -5283.70582400 Ry
     estimated scf accuracy    <       0.00171391 Ry

     iteration # 12     ecut=    60.00 Ry     beta= 0.30
     Davidson diagonalization with overlap
     ethr =  1.62E-07,  avg # of iterations =  1.0

     negative rho (up, down):  3.500E-02 0.000E+00

     total cpu time spent up to now is     7343.6 secs

     total energy              =   -5283.70586379 Ry
     estimated scf accuracy    <       0.00049092 Ry

     iteration # 13     ecut=    60.00 Ry     beta= 0.30
     Davidson diagonalization with overlap
     ethr =  9.02E-08,  avg # of iterations =  2.0

     negative rho (up, down):  3.500E-02 0.000E+00

     total cpu time spent up to now is     7351.7 secs

     total energy              =   -5283.70585345 Ry
     estimated scf accuracy    <       0.00197863 Ry

     iteration # 14     ecut=    60.00 Ry     beta= 0.30
     Davidson diagonalization with overlap
     ethr =  9.02E-08,  avg # of iterations =  1.0

     negative rho (up, down):  3.500E-02 0.000E+00

     total cpu time spent up to now is     7358.6 secs

     total energy              =   -5283.70589672 Ry
     estimated scf accuracy    <       0.00020473 Ry

     iteration # 15     ecut=    60.00 Ry     beta= 0.30
     Davidson diagonalization with overlap
     ethr =  3.76E-08,  avg # of iterations =  2.0

     negative rho (up, down):  3.500E-02 0.000E+00

     total cpu time spent up to now is     7366.2 secs

     total energy              =   -5283.70589197 Ry
     estimated scf accuracy    <       0.00049221 Ry

     iteration # 16     ecut=    60.00 Ry     beta= 0.30
     Davidson diagonalization with overlap
     ethr =  3.76E-08,  avg # of iterations =  1.0

     negative rho (up, down):  3.500E-02 0.000E+00

     total cpu time spent up to now is     7373.1 secs

     total energy              =   -5283.70590004 Ry
     estimated scf accuracy    <       0.00019291 Ry

     iteration # 17     ecut=    60.00 Ry     beta= 0.30
     Davidson diagonalization with overlap
     ethr =  3.55E-08,  avg # of iterations =  1.0

     negative rho (up, down):  3.500E-02 0.000E+00

     total cpu time spent up to now is     7380.0 secs

     total energy              =   -5283.70590228 Ry
     estimated scf accuracy    <       0.00010299 Ry

     iteration # 18     ecut=    60.00 Ry     beta= 0.30
     Davidson diagonalization with overlap
     ethr =  1.89E-08,  avg # of iterations =  1.0

     negative rho (up, down):  3.500E-02 0.000E+00

     total cpu time spent up to now is     7386.6 secs

     total energy              =   -5283.70590418 Ry
     estimated scf accuracy    <       0.00006356 Ry

     iteration # 19     ecut=    60.00 Ry     beta= 0.30
     Davidson diagonalization with overlap
     ethr =  1.17E-08,  avg # of iterations =  1.0

     negative rho (up, down):  3.500E-02 0.000E+00

     total cpu time spent up to now is     7393.3 secs

     total energy              =   -5283.70590487 Ry
     estimated scf accuracy    <       0.00004201 Ry

     iteration # 20     ecut=    60.00 Ry     beta= 0.30
     Davidson diagonalization with overlap
     ethr =  7.72E-09,  avg # of iterations =  1.0

     negative rho (up, down):  3.500E-02 0.000E+00

     total cpu time spent up to now is     7400.3 secs

     total energy              =   -5283.70590546 Ry
     estimated scf accuracy    <       0.00002452 Ry

     iteration # 21     ecut=    60.00 Ry     beta= 0.30
     Davidson diagonalization with overlap
     ethr =  4.51E-09,  avg # of iterations =  2.0

     negative rho (up, down):  3.500E-02 0.000E+00

     total cpu time spent up to now is     7407.6 secs

     total energy              =   -5283.70590533 Ry
     estimated scf accuracy    <       0.00004567 Ry

     iteration # 22     ecut=    60.00 Ry     beta= 0.30
     Davidson diagonalization with overlap
     ethr =  4.51E-09,  avg # of iterations =  1.0

     negative rho (up, down):  3.500E-02 0.000E+00

     total cpu time spent up to now is     7414.4 secs

     total energy              =   -5283.70590679 Ry
     estimated scf accuracy    <       0.00000788 Ry

     iteration # 23     ecut=    60.00 Ry     beta= 0.30
     Davidson diagonalization with overlap
     ethr =  1.45E-09,  avg # of iterations =  2.0

     negative rho (up, down):  3.500E-02 0.000E+00

     total cpu time spent up to now is     7421.7 secs

     total energy              =   -5283.70590643 Ry
     estimated scf accuracy    <       0.00001524 Ry

     iteration # 24     ecut=    60.00 Ry     beta= 0.30
     Davidson diagonalization with overlap
     ethr =  1.45E-09,  avg # of iterations =  2.0

     negative rho (up, down):  3.500E-02 0.000E+00

     total cpu time spent up to now is     7429.2 secs

     total energy              =   -5283.70590597 Ry
     estimated scf accuracy    <       0.00006548 Ry

     iteration # 25     ecut=    60.00 Ry     beta= 0.30
     Davidson diagonalization with overlap
     ethr =  1.45E-09,  avg # of iterations =  2.0

     negative rho (up, down):  3.500E-02 0.000E+00

     total cpu time spent up to now is     7436.5 secs

     total energy              =   -5283.70590669 Ry
     estimated scf accuracy    <       0.00001423 Ry

     iteration # 26     ecut=    60.00 Ry     beta= 0.30
     Davidson diagonalization with overlap
     ethr =  1.45E-09,  avg # of iterations =  1.0

     negative rho (up, down):  3.500E-02 0.000E+00

     total cpu time spent up to now is     7443.1 secs

     total energy              =   -5283.70590673 Ry
     estimated scf accuracy    <       0.00002654 Ry

     iteration # 27     ecut=    60.00 Ry     beta= 0.30
     Davidson diagonalization with overlap
     ethr =  1.45E-09,  avg # of iterations =  2.0

     negative rho (up, down):  3.500E-02 0.000E+00

     total cpu time spent up to now is     7450.2 secs

     total energy              =   -5283.70590705 Ry
     estimated scf accuracy    <       0.00000784 Ry

     iteration # 28     ecut=    60.00 Ry     beta= 0.30
     Davidson diagonalization with overlap
     ethr =  1.44E-09,  avg # of iterations =  1.0

     negative rho (up, down):  3.500E-02 0.000E+00

     total cpu time spent up to now is     7456.7 secs

     total energy              =   -5283.70590724 Ry
     estimated scf accuracy    <       0.00000349 Ry

     iteration # 29     ecut=    60.00 Ry     beta= 0.30
     Davidson diagonalization with overlap
     ethr =  6.42E-10,  avg # of iterations =  1.0

     negative rho (up, down):  3.500E-02 0.000E+00

     total cpu time spent up to now is     7463.3 secs

     total energy              =   -5283.70590728 Ry
     estimated scf accuracy    <       0.00000236 Ry

     iteration # 30     ecut=    60.00 Ry     beta= 0.30
     Davidson diagonalization with overlap
     ethr =  4.33E-10,  avg # of iterations =  1.0

     negative rho (up, down):  3.500E-02 0.000E+00

     total cpu time spent up to now is     7469.9 secs

     total energy              =   -5283.70590732 Ry
     estimated scf accuracy    <       0.00000187 Ry

     iteration # 31     ecut=    60.00 Ry     beta= 0.30
     Davidson diagonalization with overlap
     ethr =  3.44E-10,  avg # of iterations =  2.0

     negative rho (up, down):  3.500E-02 0.000E+00

     total cpu time spent up to now is     7477.2 secs

     total energy              =   -5283.70590729 Ry
     estimated scf accuracy    <       0.00000247 Ry

     iteration # 32     ecut=    60.00 Ry     beta= 0.30
     Davidson diagonalization with overlap
     ethr =  3.44E-10,  avg # of iterations =  1.0

     negative rho (up, down):  3.500E-02 0.000E+00

     total cpu time spent up to now is     7483.8 secs

     total energy              =   -5283.70590738 Ry
     estimated scf accuracy    <       0.00000082 Ry

     iteration # 33     ecut=    60.00 Ry     beta= 0.30
     Davidson diagonalization with overlap
     ethr =  1.51E-10,  avg # of iterations =  1.0

     negative rho (up, down):  3.500E-02 0.000E+00

     total cpu time spent up to now is     7490.3 secs

     total energy              =   -5283.70590740 Ry
     estimated scf accuracy    <       0.00000050 Ry

     iteration # 34     ecut=    60.00 Ry     beta= 0.30
     Davidson diagonalization with overlap
     ethr =  9.23E-11,  avg # of iterations =  2.0

     negative rho (up, down):  3.500E-02 0.000E+00

     total cpu time spent up to now is     7497.3 secs

     total energy              =   -5283.70590735 Ry
     estimated scf accuracy    <       0.00000331 Ry

     iteration # 35     ecut=    60.00 Ry     beta= 0.30
     Davidson diagonalization with overlap
     ethr =  9.23E-11,  avg # of iterations =  2.0

     negative rho (up, down):  3.500E-02 0.000E+00

     total cpu time spent up to now is     7505.5 secs

     total energy              =   -5283.70590738 Ry
     estimated scf accuracy    <       0.00000085 Ry

     iteration # 36     ecut=    60.00 Ry     beta= 0.30
     Davidson diagonalization with overlap
     ethr =  9.23E-11,  avg # of iterations =  2.0

     negative rho (up, down):  3.500E-02 0.000E+00

     total cpu time spent up to now is     7512.8 secs

     total energy              =   -5283.70590734 Ry
     estimated scf accuracy    <       0.00000427 Ry

     iteration # 37     ecut=    60.00 Ry     beta= 0.30
     Davidson diagonalization with overlap
     ethr =  9.23E-11,  avg # of iterations =  2.0

     negative rho (up, down):  3.500E-02 0.000E+00

     total cpu time spent up to now is     7519.9 secs

     total energy              =   -5283.70590739 Ry
     estimated scf accuracy    <       0.00000095 Ry

     iteration # 38     ecut=    60.00 Ry     beta= 0.30
     Davidson diagonalization with overlap
     ethr =  9.23E-11,  avg # of iterations =  2.0

     negative rho (up, down):  3.500E-02 0.000E+00

     total cpu time spent up to now is     7527.1 secs

     total energy              =   -5283.70590741 Ry
     estimated scf accuracy    <       0.00000046 Ry

     iteration # 39     ecut=    60.00 Ry     beta= 0.30
     Davidson diagonalization with overlap
     ethr =  8.37E-11,  avg # of iterations =  1.0

     negative rho (up, down):  3.500E-02 0.000E+00

     total cpu time spent up to now is     7533.9 secs

     total energy              =   -5283.70590742 Ry
     estimated scf accuracy    <       0.00000022 Ry

     iteration # 40     ecut=    60.00 Ry     beta= 0.30
     Davidson diagonalization with overlap
     ethr =  3.96E-11,  avg # of iterations =  1.0

     negative rho (up, down):  3.500E-02 0.000E+00

     total cpu time spent up to now is     7540.6 secs

     total energy              =   -5283.70590743 Ry
     estimated scf accuracy    <       0.00000018 Ry

     iteration # 41     ecut=    60.00 Ry     beta= 0.30
     Davidson diagonalization with overlap
     ethr =  3.28E-11,  avg # of iterations =  1.0

     negative rho (up, down):  3.500E-02 0.000E+00

     total cpu time spent up to now is     7546.9 secs

     total energy              =   -5283.70590743 Ry
     estimated scf accuracy    <       0.00000013 Ry

     iteration # 42     ecut=    60.00 Ry     beta= 0.30
     Davidson diagonalization with overlap
     ethr =  2.48E-11,  avg # of iterations =  2.0

     negative rho (up, down):  3.500E-02 0.000E+00

     total cpu time spent up to now is     7554.1 secs

     total energy              =   -5283.70590743 Ry
     estimated scf accuracy    <       0.00000013 Ry

     iteration # 43     ecut=    60.00 Ry     beta= 0.30
     Davidson diagonalization with overlap
     ethr =  2.45E-11,  avg # of iterations =  1.0

     negative rho (up, down):  3.500E-02 0.000E+00

     total cpu time spent up to now is     7560.6 secs

     total energy              =   -5283.70590744 Ry
     estimated scf accuracy    <       0.00000003 Ry

     iteration # 44     ecut=    60.00 Ry     beta= 0.30
     Davidson diagonalization with overlap
     ethr =  5.60E-12,  avg # of iterations =  1.0

     negative rho (up, down):  3.500E-02 0.000E+00

     total cpu time spent up to now is     7567.4 secs

     total energy              =   -5283.70590743 Ry
     estimated scf accuracy    <       0.00000009 Ry

     iteration # 45     ecut=    60.00 Ry     beta= 0.30
     Davidson diagonalization with overlap
     ethr =  5.60E-12,  avg # of iterations =  2.0

     negative rho (up, down):  3.500E-02 0.000E+00

     total cpu time spent up to now is     7574.8 secs

     total energy              =   -5283.70590743 Ry
     estimated scf accuracy    <       0.00000008 Ry

     iteration # 46     ecut=    60.00 Ry     beta= 0.30
     Davidson diagonalization with overlap
     ethr =  5.60E-12,  avg # of iterations =  2.0

     negative rho (up, down):  3.500E-02 0.000E+00

     total cpu time spent up to now is     7582.2 secs

     total energy              =   -5283.70590743 Ry
     estimated scf accuracy    <       0.00000031 Ry

     iteration # 47     ecut=    60.00 Ry     beta= 0.30
     Davidson diagonalization with overlap
     ethr =  5.60E-12,  avg # of iterations =  2.0

     negative rho (up, down):  3.500E-02 0.000E+00

     total cpu time spent up to now is     7589.6 secs

     total energy              =   -5283.70590743 Ry
     estimated scf accuracy    <       0.00000008 Ry

     iteration # 48     ecut=    60.00 Ry     beta= 0.30
     Davidson diagonalization with overlap
     ethr =  5.60E-12,  avg # of iterations =  2.0

     negative rho (up, down):  3.500E-02 0.000E+00

     total cpu time spent up to now is     7597.0 secs

     total energy              =   -5283.70590743 Ry
     estimated scf accuracy    <       0.00000006 Ry

     iteration # 49     ecut=    60.00 Ry     beta= 0.30
     Davidson diagonalization with overlap
     ethr =  5.60E-12,  avg # of iterations =  1.0

     negative rho (up, down):  3.500E-02 0.000E+00

     total cpu time spent up to now is     7603.4 secs

     total energy              =   -5283.70590744 Ry
     estimated scf accuracy    <       0.00000003 Ry

     iteration # 50     ecut=    60.00 Ry     beta= 0.30
     Davidson diagonalization with overlap
     ethr =  4.67E-12,  avg # of iterations =  2.0

     negative rho (up, down):  3.500E-02 0.000E+00

     total cpu time spent up to now is     7610.3 secs

     total energy              =   -5283.70590744 Ry
     estimated scf accuracy    <       0.00000002 Ry

     iteration # 51     ecut=    60.00 Ry     beta= 0.30
     Davidson diagonalization with overlap
     ethr =  3.52E-12,  avg # of iterations =  1.0

     negative rho (up, down):  3.500E-02 0.000E+00

     total cpu time spent up to now is     7617.1 secs

     total energy              =   -5283.70590744 Ry
     estimated scf accuracy    <       0.00000001 Ry

     iteration # 52     ecut=    60.00 Ry     beta= 0.30
     Davidson diagonalization with overlap
     ethr =  1.91E-12,  avg # of iterations =  2.0

     negative rho (up, down):  3.500E-02 0.000E+00

     total cpu time spent up to now is     7624.9 secs

     total energy              =   -5283.70590744 Ry
     estimated scf accuracy    <       0.00000002 Ry

     iteration # 53     ecut=    60.00 Ry     beta= 0.30
     Davidson diagonalization with overlap
     ethr =  1.91E-12,  avg # of iterations =  1.0

     negative rho (up, down):  3.500E-02 0.000E+00

     total cpu time spent up to now is     7631.5 secs

     total energy              =   -5283.70590744 Ry
     estimated scf accuracy    <          4.3E-09 Ry

     iteration # 54     ecut=    60.00 Ry     beta= 0.30
     Davidson diagonalization with overlap
     ethr =  7.82E-13,  avg # of iterations =  1.0

     negative rho (up, down):  3.500E-02 0.000E+00

     total cpu time spent up to now is     7638.1 secs

     total energy              =   -5283.70590744 Ry
     estimated scf accuracy    <          4.3E-09 Ry

     iteration # 55     ecut=    60.00 Ry     beta= 0.30
     Davidson diagonalization with overlap
     ethr =  7.82E-13,  avg # of iterations =  1.0

     negative rho (up, down):  3.500E-02 0.000E+00

     total cpu time spent up to now is     7645.1 secs

     total energy              =   -5283.70590744 Ry
     estimated scf accuracy    <          6.7E-09 Ry

     iteration # 56     ecut=    60.00 Ry     beta= 0.30
     Davidson diagonalization with overlap
     ethr =  7.82E-13,  avg # of iterations =  1.0

     negative rho (up, down):  3.500E-02 0.000E+00

     total cpu time spent up to now is     7651.4 secs

     total energy              =   -5283.70590744 Ry
     estimated scf accuracy    <          9.9E-09 Ry

     iteration # 57     ecut=    60.00 Ry     beta= 0.30
     Davidson diagonalization with overlap
     ethr =  7.82E-13,  avg # of iterations =  1.0

     negative rho (up, down):  3.500E-02 0.000E+00

     total cpu time spent up to now is     7658.2 secs

     total energy              =   -5283.70590744 Ry
     estimated scf accuracy    <          4.1E-09 Ry

     iteration # 58     ecut=    60.00 Ry     beta= 0.30
     Davidson diagonalization with overlap
     ethr =  7.49E-13,  avg # of iterations =  1.0

     negative rho (up, down):  3.500E-02 0.000E+00

     total cpu time spent up to now is     7664.7 secs

     total energy              =   -5283.70590744 Ry
     estimated scf accuracy    <          3.9E-09 Ry

     iteration # 59     ecut=    60.00 Ry     beta= 0.30
     Davidson diagonalization with overlap
     ethr =  7.23E-13,  avg # of iterations =  1.0

     negative rho (up, down):  3.500E-02 0.000E+00

     total cpu time spent up to now is     7671.4 secs

     total energy              =   -5283.70590744 Ry
     estimated scf accuracy    <          3.4E-09 Ry

     iteration # 60     ecut=    60.00 Ry     beta= 0.30
     Davidson diagonalization with overlap
     ethr =  6.31E-13,  avg # of iterations =  1.0

     negative rho (up, down):  3.500E-02 0.000E+00

     total cpu time spent up to now is     7677.9 secs

     total energy              =   -5283.70590744 Ry
     estimated scf accuracy    <          2.3E-09 Ry

     iteration # 61     ecut=    60.00 Ry     beta= 0.30
     Davidson diagonalization with overlap
     ethr =  4.29E-13,  avg # of iterations =  1.0

     negative rho (up, down):  3.500E-02 0.000E+00

     total cpu time spent up to now is     7684.5 secs

     End of self-consistent calculation

          k = 0.0000 0.0000 0.0000 ( 46961 PWs)   bands (ev):

   -69.6430 -69.5913 -69.5705 -69.5534 -69.5505 -69.5484 -69.5442 -69.5395
   -69.5305 -69.4834 -69.3077 -62.1424 -62.1202 -62.1186 -62.0835 -62.0661
   -62.0029 -61.9898 -61.9877 -61.8516 -61.7789 -54.3894 -54.3609 -54.2621
   -54.1052 -54.1016 -54.0709 -54.0464 -54.0372 -54.0103 -53.9808 -53.9439
   -41.0468 -41.0383 -41.0303 -41.0211 -41.0142 -41.0067 -41.0019 -40.9842
   -40.9693 -40.9616 -40.9500 -40.9463 -40.9326 -40.9273 -40.9256 -40.9100
   -40.8921 -40.8855 -40.8829 -40.8701 -40.8693 -40.8637 -40.8575 -40.8571
   -40.8541 -40.8433 -40.8269 -40.8131 -40.7991 -40.7887 -40.7551 -40.6606
   -40.5261 -36.1060 -36.0766 -36.0511 -36.0488 -36.0390 -36.0364 -36.0200
   -35.9814 -35.9762 -35.9722 -35.9601 -35.9497 -35.9349 -35.9223 -35.9184
   -35.9098 -35.8968 -35.8806 -35.8686 -35.8503 -35.8419 -35.8361 -35.7870
   -35.7647 -35.7555 -35.7177 -35.6750 -35.6480 -35.6435 -35.6090 -30.8241
   -30.7745 -30.6843 -30.6592 -30.6318 -30.6190 -30.6120 -30.6087 -30.5739
   -30.5436 -30.5247 -30.5243 -30.5043 -30.4841 -30.4749 -30.4682 -30.4593
   -30.4532 -30.4228 -30.4082 -30.3880 -30.3665 -30.3343 -30.3246 -30.3063
   -30.2961 -30.2858 -30.2550 -30.2477 -30.2241 -30.1849 -30.1725 -30.1302
   -10.7966  -9.7630  -9.3156  -9.2565  -9.1350  -9.0257  -8.6548  -8.4651
    -8.3947  -8.3877  -8.3371  -8.2296  -8.2130  -8.1096  -8.0490  -7.8626
    -7.7899  -7.7627  -7.6436  -7.5876  -7.5434  -7.5287  -7.4690  -7.4373
    -7.3862  -7.3831  -7.2262  -7.1458  -6.9817  -6.9345  -6.7672  -6.4761
    -4.0386  -3.9803  -3.9332  -3.7979  -3.0782  -2.9348  -2.7831  -2.7357
    -2.7084  -2.6541  -2.6314  -2.5512  -2.4939  -2.4368  -2.4301  -2.2962
    -2.1414  -2.1289  -2.0582  -1.9175  -1.9036  -1.8676  -1.8225  -1.7650
    -1.6892  -1.6050  -1.5650  -1.5012  -1.4780  -1.4647  -1.4244  -1.4169
    -1.4091  -1.3994  -1.3931  -1.3532  -1.3475  -1.3107  -1.2979  -1.2584
    -1.2109  -1.1621  -1.1326  -1.1045  -1.0394  -1.0213  -0.9903  -0.9591
    -0.9441  -0.8922  -0.8605  -0.8469  -0.7889  -0.7577  -0.7384  -0.7293
    -0.6978  -0.6794  -0.6602  -0.6294  -0.6150  -0.5001  -0.4812  -0.4172
    -0.3689  -0.3159  -0.2780  -0.2541  -0.1981  -0.1515  -0.1187  -0.0850
    -0.0765  -0.0142   0.0257   0.0305   0.0802   0.2149   0.3072   0.3676
     0.3908   0.5042   0.5758   0.6504   0.6764   0.7246   0.7856   0.9084
     0.9502   0.9857   1.0876   1.1736   1.2362   1.2712   1.3445   1.3629
     1.4720   1.5891   1.6406   1.7181   1.7264   1.8736   1.9046   2.1438
     2.1707   2.5739   2.6233   2.6790   2.7621   2.8187   2.8528   2.8902
     2.9638   3.0374   3.0547   3.0706   3.0804   3.1629   3.1714   3.1974
     3.2399   3.2464   3.2802   3.3144   3.3242   3.3483   3.3553   3.4122
     3.4358   3.4442   3.5142   3.5191   3.5430   3.5864   3.5950   3.6288
     3.6895   3.7689   3.7947   3.8408   3.8756   3.8936   3.9220   3.9647
     3.9930   4.0257   4.0586   4.0723   4.1032   4.1343   4.1809   4.1946
     4.2128   4.2524   4.2802   4.3684   4.4111   4.4657   4.4780   4.5199
     4.5314   4.5693   4.5918   4.6181   4.7003   4.7321

     the Fermi energy is     2.9347 ev

!    total energy              =   -5283.70590744 Ry
     estimated scf accuracy    <          1.3E-09 Ry
     smearing contrib. (-TS)   =      -0.03628835 Ry
     internal energy E=F+TS    =   -5283.66961909 Ry

     The total energy is F=E-TS. E is the sum of the following terms:
     one-electron contribution =  -55960.49941424 Ry
     hartree contribution      =   28004.11834487 Ry
     xc contribution           =    -787.67029994 Ry
     ewald contribution        =   23657.98517117 Ry
     one-center paw contrib.   =    -197.60342095 Ry

     convergence has been achieved in  61 iterations

     negative rho (up, down):  3.500E-02 0.000E+00

     Forces acting on atoms (cartesian axes, Ry/au):

     atom    1 type  1   force =     0.00315483    0.00409087   -0.00481104
     atom    2 type  1   force =    -0.00833069   -0.00617386    0.00650990
     atom    3 type  1   force =     0.00003911    0.00089578    0.00202834
     atom    4 type  1   force =     0.00046320   -0.01611282    0.03060924
     atom    5 type  1   force =    -0.00454127    0.01294211    0.00163347
     atom    6 type  1   force =     0.00902252   -0.00198506    0.02749892
     atom    7 type  1   force =     0.00018233    0.00317516    0.00488933
     atom    8 type  1   force =     0.00056195   -0.00379024   -0.00088151
     atom    9 type  1   force =    -0.00046740    0.00041186   -0.00273126
     atom   10 type  1   force =    -0.00778525    0.00093463    0.00060226
     atom   11 type  1   force =     0.00347717    0.00024693    0.00172467
     atom   12 type  2   force =    -0.00181038    0.00153576   -0.00364260
     atom   13 type  2   force =    -0.00415459   -0.00948403   -0.00025941
     atom   14 type  2   force =     0.02178287   -0.00524752    0.00858221
     atom   15 type  2   force =    -0.01011615    0.00255615    0.11376974
     atom   16 type  2   force =     0.00703259   -0.00112345    0.09527075
     atom   17 type  2   force =    -0.00073641   -0.00000205    0.00016435
     atom   18 type  2   force =    -0.00186162   -0.00123278    0.00432326
     atom   19 type  2   force =     0.00164533    0.00234025    0.00160551
     atom   20 type  2   force =     0.00344256   -0.00874522   -0.01063933
     atom   21 type  2   force =     0.00228906    0.02362727   -0.01266797
     atom   22 type  3   force =    -0.01268797    0.00395051   -0.00499716
     atom   23 type  3   force =    -0.02199856   -0.01196209    0.00726826
     atom   24 type  3   force =     0.02886669    0.02056929   -0.01994294
     atom   25 type  3   force =     0.01411765   -0.01443650    0.06845508
     atom   26 type  3   force =    -0.00424756    0.01051290    0.12518735
     atom   27 type  3   force =     0.00424325   -0.00191838   -0.00304391
     atom   28 type  3   force =    -0.00980010   -0.00090720    0.03117903
     atom   29 type  3   force =    -0.00541810    0.00619606   -0.00028968
     atom   30 type  3   force =    -0.00343118   -0.00126366   -0.00163488
     atom   31 type  3   force =     0.00932742   -0.00336105   -0.01950733
     atom   32 type  3   force =    -0.01211603   -0.00642088   -0.00933173
     atom   33 type  4   force =     0.00221474   -0.00756602   -0.03362845
     atom   34 type  4   force =     0.00987144    0.01257441   -0.00389780
     atom   35 type  4   force =    -0.00286009   -0.01723245   -0.01869598
     atom   36 type  4   force =     0.00141763    0.01102352   -0.03406311
     atom   37 type  4   force =     0.00093352   -0.00096356   -0.00400494
     atom   38 type  4   force =    -0.00229909    0.00039706   -0.00093972
     atom   39 type  4   force =    -0.00027764    0.00112679   -0.00451977
     atom   40 type  4   force =    -0.00078981    0.00275711    0.00171336
     atom   41 type  4   force =     0.00532905   -0.00487681    0.00208075
     atom   42 type  4   force =     0.01066852    0.00299656    0.00361424
     atom   43 type  4   force =    -0.00393020    0.00160106    0.00343800
     atom   44 type  4   force =    -0.00135197    0.00429771    0.00248392
     atom   45 type  4   force =     0.00425296    0.00596394   -0.03672813
     atom   46 type  4   force =     0.00140882    0.00209936   -0.04453551
     atom   47 type  4   force =    -0.01056675   -0.00261108   -0.02050736
     atom   48 type  4   force =    -0.01444959   -0.00754720   -0.02418810
     atom   49 type  4   force =     0.01435968   -0.00159619    0.00410884
     atom   50 type  4   force =     0.00319852   -0.00760422    0.00124098
     atom   51 type  4   force =     0.00367511    0.00019159    0.00454344
     atom   52 type  4   force =     0.00024294   -0.00241280    0.00343288
     atom   53 type  4   force =    -0.00184403   -0.00639014   -0.03349338
     atom   54 type  4   force =    -0.00519438    0.00844467   -0.02909280
     atom   55 type  4   force =    -0.00005233    0.00315382   -0.03588527
     atom   56 type  4   force =    -0.00131629   -0.00843411   -0.02645984
     atom   57 type  4   force =    -0.01683000    0.00843885   -0.02471008
     atom   58 type  4   force =    -0.00944123   -0.00684551   -0.03044100
     atom   59 type  4   force =     0.01461984    0.01451610   -0.03037688
     atom   60 type  4   force =     0.00228916   -0.01027458   -0.01849472
     atom   61 type  4   force =    -0.00155565    0.00247318    0.00207566
     atom   62 type  4   force =    -0.00142963    0.00113053   -0.00602671
     atom   63 type  4   force =    -0.00115624    0.00033425   -0.00046100
     atom   64 type  4   force =     0.00071770    0.00101542   -0.00450244

     Total force =     0.037356     Total SCF correction =     0.000055
     Energy error            =      3.2E-03 Ry
     Gradient error          =      1.4E-02 Ry/Bohr

     number of scf cycles    =  18
     number of bfgs steps    =  17

     energy             old  =   -5283.7027498457 Ry
     energy             new  =   -5283.7059074364 Ry

     CASE: energy            _new < energy            _old

     new trust radius        =       0.0563811160 bohr
     new conv_thr            =       0.0000000014 Ry


ATOMIC_POSITIONS (angstrom)
Ti               8.3374287614       -0.0195211072       15.7878049321
Ti               0.0291331002        8.3621570543       11.5803477355    0   0   0
Ti               2.0901388795        4.2036466566       13.6911898183
Ti               8.3795041056        2.0957563981        9.4724378689    0   0   0
Ti               8.3750099733        6.2687152092        9.4933225157    0   0   0
Ti               4.2170671874        6.2898439467        9.4911460380    0   0   0
Ti               8.3716343234        2.0890488432       13.6436560511
Ti               8.3891660764        6.2698366653       13.6388654886
Ti               4.2056054323        6.2671520465       13.6488394757
Ti               2.0929819892        6.2367315439       15.8146638157
Ti               6.2594354182        6.2332005076       15.7864002313
V                8.3119739927        4.0789950387       15.6881700072
V                4.1503995356        4.0348295829       15.6542164441
V                4.1453105473        4.2119457891       11.5975026988    0   0   0
V                2.1879867013        0.0520231596        9.5054883674    0   0   0
V                2.1522427348        4.1319303501        9.4904675789    0   0   0
V                2.1093029231        8.3544819744       13.6596602563
V                6.3066201979        4.2203294569       13.7302484207
V                4.1876087846        2.1090009267       13.5490879781
V                2.1048639148        6.2714192178       11.5723879270    0   0   0
V                6.3158808164        6.1438819511       11.5700667150    0   0   0
Cr               4.1856956986       -0.0509835270       15.5837530835
Cr               0.1179128009        4.1786640750       11.5195623927    0   0   0
Cr               4.1681598842        8.2577799257       11.6615352591    0   0   0
Cr               6.1999882077        0.1106418811        9.6948923906    0   0   0
Cr               6.2007452456        4.0563627707        9.3394942948    0   0   0
Cr               6.3196448977        8.2775919131       13.5855507997
Cr               4.2149984025        2.0754774019        9.7444374941    0   0   0
Cr               2.0373611314        2.0313204588       15.5889683554
Cr               6.1683154854        1.9866434641       15.5403959207
Cr               2.0054620409        2.1149661174       11.6192682974    0   0   0
Cr               6.3992485267        2.2488278238       11.6549867199    0   0   0
C                8.3671464633        0.0123762133        9.4921945368    0   0   0
C                8.3685510870        4.1683341954        9.4949958325    0   0   0
C                4.2233794382        0.0660683478        9.5137772640    0   0   0
C                4.2071394793        4.1170355077        9.4900603783    0   0   0
C                8.3713123569       -0.0132365028       13.7509047110
C                8.3544400060        4.1631741660       13.7630838108
C                4.2221942334       -0.0000843340       13.7163983538
C                4.2122821101        4.1198687832       13.7097971818
C                2.2407549296        0.1448522238       15.8967822488
C                2.1655416357        4.1648657823       15.9184224574
C                6.2833113023        0.1115270739       15.9015536341
C                6.3083028424        4.1458701272       15.8912106077
C                2.1521326937        0.0175132539       11.5903255372    0   0   0
C                2.1078429860        4.1683083653       11.5671868517    0   0   0
C                6.2417937451        0.0188099573       11.6002801854    0   0   0
C                6.3283074126        4.1569384024       11.5682471185    0   0   0
C                8.5202190880        2.1462782909       15.8979180376
C                8.4122479135        6.3185354885       16.0157108648
C                4.2865454657        2.1161459231       15.7518173433
C                4.2352457370        6.4739231600       15.9493084720
C                0.0147673152        2.1438801594       11.5939557114    0   0   0
C                0.0200697416        6.2277703895       11.5821679336    0   0   0
C                4.2182428542        2.0594943016       11.6100232202    0   0   0
C                4.2117703951        6.2583221129       11.5919858628    0   0   0
C                2.1713130363        2.0860319016        9.4919958919    0   0   0
C                2.1164500536        6.2753611976        9.5156635851    0   0   0
C                6.2203151227        2.0809934926        9.4961719556    0   0   0
C                6.2861737462        6.2618311600        9.5257047400    0   0   0
C                2.1223793068        2.0483246164       13.7183716513
C                2.1085226662        6.2875245642       13.7793886812
C                6.2453437707        2.0524686184       13.6793970829
C                6.2968689205        6.2382602559       13.7358516413



     Writing config-only to output data dir ./tmp/hec3_CrTiV_f100_CO_clean.save/ :
     XML data file
     NEW-OLD atomic charge density approx. for the potential

     Check: negative core charge=   -0.000005

     negative rho (up, down):  3.504E-02 0.000E+00

     total cpu time spent up to now is     7694.8 secs

     Self-consistent Calculation

     iteration #  1     ecut=    60.00 Ry     beta= 0.30
     Davidson diagonalization with overlap
     ethr =  1.00E-06,  avg # of iterations = 10.0

     negative rho (up, down):  3.503E-02 0.000E+00

     total cpu time spent up to now is     7708.1 secs

     total energy              =   -5283.70146326 Ry
     estimated scf accuracy    <       0.01733230 Ry

     iteration #  2     ecut=    60.00 Ry     beta= 0.30
     Davidson diagonalization with overlap
     ethr =  3.19E-06,  avg # of iterations = 14.0

     negative rho (up, down):  3.503E-02 0.000E+00

     total cpu time spent up to now is     7722.2 secs

     total energy              =   -5283.66132793 Ry
     estimated scf accuracy    <       2.56103234 Ry

     iteration #  3     ecut=    60.00 Ry     beta= 0.30
     Davidson diagonalization with overlap
     c_bands:  2 eigenvalues not converged
     ethr =  3.19E-06,  avg # of iterations = 20.0

     negative rho (up, down):  3.503E-02 0.000E+00

     total cpu time spent up to now is     7738.7 secs

     total energy              =   -5283.70013664 Ry
     estimated scf accuracy    <       0.29173629 Ry

     iteration #  4     ecut=    60.00 Ry     beta= 0.30
     Davidson diagonalization with overlap
     ethr =  3.19E-06,  avg # of iterations = 14.0

     negative rho (up, down):  3.502E-02 0.000E+00

     total cpu time spent up to now is     7751.5 secs

     total energy              =   -5283.70507902 Ry
     estimated scf accuracy    <       0.08111572 Ry

     iteration #  5     ecut=    60.00 Ry     beta= 0.30
     Davidson diagonalization with overlap
     ethr =  3.19E-06,  avg # of iterations =  2.0

     negative rho (up, down):  3.503E-02 0.000E+00

     total cpu time spent up to now is     7758.7 secs

     total energy              =   -5283.70693236 Ry
     estimated scf accuracy    <       0.01206636 Ry

     iteration #  6     ecut=    60.00 Ry     beta= 0.30
     Davidson diagonalization with overlap
     ethr =  2.22E-06,  avg # of iterations =  2.0

     negative rho (up, down):  3.504E-02 0.000E+00

     total cpu time spent up to now is     7766.1 secs

     total energy              =   -5283.70718785 Ry
     estimated scf accuracy    <       0.00857628 Ry

     iteration #  7     ecut=    60.00 Ry     beta= 0.30
     Davidson diagonalization with overlap
     ethr =  1.58E-06,  avg # of iterations =  2.0

     negative rho (up, down):  3.504E-02 0.000E+00

     total cpu time spent up to now is     7773.3 secs

     total energy              =   -5283.70734846 Ry
     estimated scf accuracy    <       0.00659339 Ry

     iteration #  8     ecut=    60.00 Ry     beta= 0.30
     Davidson diagonalization with overlap
     ethr =  1.21E-06,  avg # of iterations =  2.0

     negative rho (up, down):  3.504E-02 0.000E+00

     total cpu time spent up to now is     7780.2 secs

     total energy              =   -5283.70749581 Ry
     estimated scf accuracy    <       0.00424163 Ry

     iteration #  9     ecut=    60.00 Ry     beta= 0.30
     Davidson diagonalization with overlap
     ethr =  7.80E-07,  avg # of iterations =  1.0

     negative rho (up, down):  3.505E-02 0.000E+00

     total cpu time spent up to now is     7786.8 secs

     total energy              =   -5283.70758573 Ry
     estimated scf accuracy    <       0.00275466 Ry

     iteration # 10     ecut=    60.00 Ry     beta= 0.30
     Davidson diagonalization with overlap
     ethr =  5.06E-07,  avg # of iterations =  1.0

     negative rho (up, down):  3.506E-02 0.000E+00

     total cpu time spent up to now is     7793.4 secs

     total energy              =   -5283.70766414 Ry
     estimated scf accuracy    <       0.00055403 Ry

     iteration # 11     ecut=    60.00 Ry     beta= 0.30
     Davidson diagonalization with overlap
     ethr =  1.02E-07,  avg # of iterations =  5.0

     negative rho (up, down):  3.506E-02 0.000E+00

     total cpu time spent up to now is     7801.7 secs

     total energy              =   -5283.70766358 Ry
     estimated scf accuracy    <       0.00104272 Ry

     iteration # 12     ecut=    60.00 Ry     beta= 0.30
     Davidson diagonalization with overlap
     ethr =  1.02E-07,  avg # of iterations =  2.0

     negative rho (up, down):  3.506E-02 0.000E+00

     total cpu time spent up to now is     7808.9 secs

     total energy              =   -5283.70766279 Ry
     estimated scf accuracy    <       0.00091617 Ry

     iteration # 13     ecut=    60.00 Ry     beta= 0.30
     Davidson diagonalization with overlap
     ethr =  1.02E-07,  avg # of iterations =  2.0

     negative rho (up, down):  3.506E-02 0.000E+00

     total cpu time spent up to now is     7816.2 secs

     total energy              =   -5283.70758162 Ry
     estimated scf accuracy    <       0.00870927 Ry

     iteration # 14     ecut=    60.00 Ry     beta= 0.30
     Davidson diagonalization with overlap
     ethr =  1.02E-07,  avg # of iterations =  1.0

     negative rho (up, down):  3.506E-02 0.000E+00

     total cpu time spent up to now is     7822.8 secs

     total energy              =   -5283.70769716 Ry
     estimated scf accuracy    <       0.00074045 Ry

     iteration # 15     ecut=    60.00 Ry     beta= 0.30
     Davidson diagonalization with overlap
     ethr =  1.02E-07,  avg # of iterations =  1.0

     negative rho (up, down):  3.506E-02 0.000E+00

     total cpu time spent up to now is     7829.2 secs

     total energy              =   -5283.70771591 Ry
     estimated scf accuracy    <       0.00011396 Ry

     iteration # 16     ecut=    60.00 Ry     beta= 0.30
     Davidson diagonalization with overlap
     ethr =  2.09E-08,  avg # of iterations =  2.0

     negative rho (up, down):  3.506E-02 0.000E+00

     total cpu time spent up to now is     7836.7 secs

     total energy              =   -5283.70771903 Ry
     estimated scf accuracy    <       0.00007851 Ry

     iteration # 17     ecut=    60.00 Ry     beta= 0.30
     Davidson diagonalization with overlap
     ethr =  1.44E-08,  avg # of iterations =  1.0

     negative rho (up, down):  3.506E-02 0.000E+00

     total cpu time spent up to now is     7843.4 secs

     total energy              =   -5283.70772087 Ry
     estimated scf accuracy    <       0.00005905 Ry

     iteration # 18     ecut=    60.00 Ry     beta= 0.30
     Davidson diagonalization with overlap
     ethr =  1.09E-08,  avg # of iterations =  1.0

     negative rho (up, down):  3.506E-02 0.000E+00

     total cpu time spent up to now is     7849.9 secs

     total energy              =   -5283.70772193 Ry
     estimated scf accuracy    <       0.00003651 Ry

     iteration # 19     ecut=    60.00 Ry     beta= 0.30
     Davidson diagonalization with overlap
     ethr =  6.71E-09,  avg # of iterations =  1.0

     negative rho (up, down):  3.506E-02 0.000E+00

     total cpu time spent up to now is     7856.4 secs

     total energy              =   -5283.70772225 Ry
     estimated scf accuracy    <       0.00003351 Ry

     iteration # 20     ecut=    60.00 Ry     beta= 0.30
     Davidson diagonalization with overlap
     ethr =  6.16E-09,  avg # of iterations =  1.0

     negative rho (up, down):  3.506E-02 0.000E+00

     total cpu time spent up to now is     7863.2 secs

     total energy              =   -5283.70772270 Ry
     estimated scf accuracy    <       0.00002297 Ry

     iteration # 21     ecut=    60.00 Ry     beta= 0.30
     Davidson diagonalization with overlap
     ethr =  4.22E-09,  avg # of iterations =  2.0

     negative rho (up, down):  3.506E-02 0.000E+00

     total cpu time spent up to now is     7870.4 secs

     total energy              =   -5283.70772310 Ry
     estimated scf accuracy    <       0.00002103 Ry

     iteration # 22     ecut=    60.00 Ry     beta= 0.30
     Davidson diagonalization with overlap
     ethr =  3.87E-09,  avg # of iterations =  1.0

     negative rho (up, down):  3.506E-02 0.000E+00

     total cpu time spent up to now is     7877.1 secs

     total energy              =   -5283.70772377 Ry
     estimated scf accuracy    <       0.00000684 Ry

     iteration # 23     ecut=    60.00 Ry     beta= 0.30
     Davidson diagonalization with overlap
     ethr =  1.26E-09,  avg # of iterations =  2.0

     negative rho (up, down):  3.506E-02 0.000E+00

     total cpu time spent up to now is     7884.2 secs

     total energy              =   -5283.70772376 Ry
     estimated scf accuracy    <       0.00000908 Ry

     iteration # 24     ecut=    60.00 Ry     beta= 0.30
     Davidson diagonalization with overlap
     ethr =  1.26E-09,  avg # of iterations =  2.0

     negative rho (up, down):  3.506E-02 0.000E+00

     total cpu time spent up to now is     7891.5 secs

     total energy              =   -5283.70772338 Ry
     estimated scf accuracy    <       0.00004267 Ry

     iteration # 25     ecut=    60.00 Ry     beta= 0.30
     Davidson diagonalization with overlap
     ethr =  1.26E-09,  avg # of iterations =  2.0

     negative rho (up, down):  3.506E-02 0.000E+00

     total cpu time spent up to now is     7899.0 secs

     total energy              =   -5283.70772359 Ry
     estimated scf accuracy    <       0.00001766 Ry

     iteration # 26     ecut=    60.00 Ry     beta= 0.30
     Davidson diagonalization with overlap
     ethr =  1.26E-09,  avg # of iterations =  2.0

     negative rho (up, down):  3.506E-02 0.000E+00

     total cpu time spent up to now is     7909.6 secs

     total energy              =   -5283.70772391 Ry
     estimated scf accuracy    <       0.00000659 Ry

     iteration # 27     ecut=    60.00 Ry     beta= 0.30
     Davidson diagonalization with overlap
     ethr =  1.21E-09,  avg # of iterations =  1.0

     negative rho (up, down):  3.506E-02 0.000E+00

     total cpu time spent up to now is     7916.4 secs

     total energy              =   -5283.70772401 Ry
     estimated scf accuracy    <       0.00000541 Ry

     iteration # 28     ecut=    60.00 Ry     beta= 0.30
     Davidson diagonalization with overlap
     ethr =  9.94E-10,  avg # of iterations =  1.0

     negative rho (up, down):  3.506E-02 0.000E+00

     total cpu time spent up to now is     7923.0 secs

     total energy              =   -5283.70772415 Ry
     estimated scf accuracy    <       0.00000211 Ry

     iteration # 29     ecut=    60.00 Ry     beta= 0.30
     Davidson diagonalization with overlap
     ethr =  3.88E-10,  avg # of iterations =  1.0

     negative rho (up, down):  3.506E-02 0.000E+00

     total cpu time spent up to now is     7929.4 secs

     total energy              =   -5283.70772418 Ry
     estimated scf accuracy    <       0.00000130 Ry

     iteration # 30     ecut=    60.00 Ry     beta= 0.30
     Davidson diagonalization with overlap
     ethr =  2.40E-10,  avg # of iterations =  2.0

     negative rho (up, down):  3.506E-02 0.000E+00

     total cpu time spent up to now is     7936.6 secs

     total energy              =   -5283.70772419 Ry
     estimated scf accuracy    <       0.00000151 Ry

     iteration # 31     ecut=    60.00 Ry     beta= 0.30
     Davidson diagonalization with overlap
     ethr =  2.40E-10,  avg # of iterations =  1.0

     negative rho (up, down):  3.506E-02 0.000E+00

     total cpu time spent up to now is     7943.2 secs

     total energy              =   -5283.70772421 Ry
     estimated scf accuracy    <       0.00000095 Ry

     iteration # 32     ecut=    60.00 Ry     beta= 0.30
     Davidson diagonalization with overlap
     ethr =  1.74E-10,  avg # of iterations =  1.0

     negative rho (up, down):  3.506E-02 0.000E+00

     total cpu time spent up to now is     7950.0 secs

     total energy              =   -5283.70772425 Ry
     estimated scf accuracy    <       0.00000026 Ry

     iteration # 33     ecut=    60.00 Ry     beta= 0.30
     Davidson diagonalization with overlap
     ethr =  4.77E-11,  avg # of iterations =  2.0

     negative rho (up, down):  3.506E-02 0.000E+00

     total cpu time spent up to now is     7957.0 secs

     total energy              =   -5283.70772426 Ry
     estimated scf accuracy    <       0.00000021 Ry

     iteration # 34     ecut=    60.00 Ry     beta= 0.30
     Davidson diagonalization with overlap
     ethr =  3.95E-11,  avg # of iterations =  2.0

     negative rho (up, down):  3.506E-02 0.000E+00

     total cpu time spent up to now is     7964.1 secs

     total energy              =   -5283.70772426 Ry
     estimated scf accuracy    <       0.00000026 Ry

     iteration # 35     ecut=    60.00 Ry     beta= 0.30
     Davidson diagonalization with overlap
     ethr =  3.95E-11,  avg # of iterations =  2.0

     negative rho (up, down):  3.506E-02 0.000E+00

     total cpu time spent up to now is     7971.3 secs

     total energy              =   -5283.70772425 Ry
     estimated scf accuracy    <       0.00000049 Ry

     iteration # 36     ecut=    60.00 Ry     beta= 0.30
     Davidson diagonalization with overlap
     ethr =  3.95E-11,  avg # of iterations =  2.0

     negative rho (up, down):  3.506E-02 0.000E+00

     total cpu time spent up to now is     7978.3 secs

     total energy              =   -5283.70772425 Ry
     estimated scf accuracy    <       0.00000042 Ry

     iteration # 37     ecut=    60.00 Ry     beta= 0.30
     Davidson diagonalization with overlap
     ethr =  3.95E-11,  avg # of iterations =  2.0

     negative rho (up, down):  3.506E-02 0.000E+00

     total cpu time spent up to now is     7985.8 secs

     total energy              =   -5283.70772425 Ry
     estimated scf accuracy    <       0.00000052 Ry

     iteration # 38     ecut=    60.00 Ry     beta= 0.30
     Davidson diagonalization with overlap
     ethr =  3.95E-11,  avg # of iterations =  2.0

     negative rho (up, down):  3.506E-02 0.000E+00

     total cpu time spent up to now is     7992.9 secs

     total energy              =   -5283.70772426 Ry
     estimated scf accuracy    <       0.00000022 Ry

     iteration # 39     ecut=    60.00 Ry     beta= 0.30
     Davidson diagonalization with overlap
     ethr =  3.95E-11,  avg # of iterations =  1.0

     negative rho (up, down):  3.506E-02 0.000E+00

     total cpu time spent up to now is     7999.7 secs

     total energy              =   -5283.70772427 Ry
     estimated scf accuracy    <       0.00000008 Ry

     iteration # 40     ecut=    60.00 Ry     beta= 0.30
     Davidson diagonalization with overlap
     ethr =  1.49E-11,  avg # of iterations =  2.0

     negative rho (up, down):  3.506E-02 0.000E+00

     total cpu time spent up to now is     8006.8 secs

     total energy              =   -5283.70772426 Ry
     estimated scf accuracy    <       0.00000010 Ry

     iteration # 41     ecut=    60.00 Ry     beta= 0.30
     Davidson diagonalization with overlap
     ethr =  1.49E-11,  avg # of iterations =  1.0

     negative rho (up, down):  3.506E-02 0.000E+00

     total cpu time spent up to now is     8013.1 secs

     total energy              =   -5283.70772427 Ry
     estimated scf accuracy    <       0.00000008 Ry

     iteration # 42     ecut=    60.00 Ry     beta= 0.30
     Davidson diagonalization with overlap
     ethr =  1.41E-11,  avg # of iterations =  2.0

     negative rho (up, down):  3.506E-02 0.000E+00

     total cpu time spent up to now is     8020.4 secs

     total energy              =   -5283.70772427 Ry
     estimated scf accuracy    <       0.00000008 Ry

     iteration # 43     ecut=    60.00 Ry     beta= 0.30
     Davidson diagonalization with overlap
     ethr =  1.39E-11,  avg # of iterations =  1.0

     negative rho (up, down):  3.506E-02 0.000E+00

     total cpu time spent up to now is     8027.0 secs

     total energy              =   -5283.70772427 Ry
     estimated scf accuracy    <       0.00000003 Ry

     iteration # 44     ecut=    60.00 Ry     beta= 0.30
     Davidson diagonalization with overlap
     ethr =  4.75E-12,  avg # of iterations =  1.0

     negative rho (up, down):  3.506E-02 0.000E+00

     total cpu time spent up to now is     8033.5 secs

     total energy              =   -5283.70772427 Ry
     estimated scf accuracy    <       0.00000002 Ry

     iteration # 45     ecut=    60.00 Ry     beta= 0.30
     Davidson diagonalization with overlap
     ethr =  3.00E-12,  avg # of iterations =  1.0

     negative rho (up, down):  3.506E-02 0.000E+00

     total cpu time spent up to now is     8040.1 secs

     total energy              =   -5283.70772427 Ry
     estimated scf accuracy    <       0.00000004 Ry

     iteration # 46     ecut=    60.00 Ry     beta= 0.30
     Davidson diagonalization with overlap
     ethr =  3.00E-12,  avg # of iterations =  1.0

     negative rho (up, down):  3.506E-02 0.000E+00

     total cpu time spent up to now is     8046.9 secs

     total energy              =   -5283.70772427 Ry
     estimated scf accuracy    <       0.00000003 Ry

     iteration # 47     ecut=    60.00 Ry     beta= 0.30
     Davidson diagonalization with overlap
     ethr =  3.00E-12,  avg # of iterations =  1.0

     negative rho (up, down):  3.506E-02 0.000E+00

     total cpu time spent up to now is     8053.6 secs

     total energy              =   -5283.70772427 Ry
     estimated scf accuracy    <       0.00000003 Ry

     iteration # 48     ecut=    60.00 Ry     beta= 0.30
     Davidson diagonalization with overlap
     ethr =  3.00E-12,  avg # of iterations =  1.0

     negative rho (up, down):  3.506E-02 0.000E+00

     total cpu time spent up to now is     8060.2 secs

     total energy              =   -5283.70772427 Ry
     estimated scf accuracy    <       0.00000002 Ry

     iteration # 49     ecut=    60.00 Ry     beta= 0.30
     Davidson diagonalization with overlap
     ethr =  2.82E-12,  avg # of iterations =  1.0

     negative rho (up, down):  3.506E-02 0.000E+00

     total cpu time spent up to now is     8066.6 secs

     total energy              =   -5283.70772427 Ry
     estimated scf accuracy    <          3.5E-09 Ry

     iteration # 50     ecut=    60.00 Ry     beta= 0.30
     Davidson diagonalization with overlap
     ethr =  6.50E-13,  avg # of iterations =  2.0

     negative rho (up, down):  3.506E-02 0.000E+00

     total cpu time spent up to now is     8073.7 secs

     total energy              =   -5283.70772427 Ry
     estimated scf accuracy    <          2.8E-09 Ry

     iteration # 51     ecut=    60.00 Ry     beta= 0.30
     Davidson diagonalization with overlap
     ethr =  5.17E-13,  avg # of iterations =  2.0

     negative rho (up, down):  3.506E-02 0.000E+00

     total cpu time spent up to now is     8084.5 secs

     total energy              =   -5283.70772427 Ry
     estimated scf accuracy    <          5.0E-09 Ry

     iteration # 52     ecut=    60.00 Ry     beta= 0.30
     Davidson diagonalization with overlap
     ethr =  5.17E-13,  avg # of iterations =  2.0

     negative rho (up, down):  3.506E-02 0.000E+00

     total cpu time spent up to now is     8092.8 secs

     total energy              =   -5283.70772427 Ry
     estimated scf accuracy    <          9.2E-09 Ry

     iteration # 53     ecut=    60.00 Ry     beta= 0.30
     Davidson diagonalization with overlap
     ethr =  5.17E-13,  avg # of iterations =  2.0

     negative rho (up, down):  3.506E-02 0.000E+00

     total cpu time spent up to now is     8100.5 secs

     total energy              =   -5283.70772427 Ry
     estimated scf accuracy    <          5.0E-09 Ry

     iteration # 54     ecut=    60.00 Ry     beta= 0.30
     Davidson diagonalization with overlap
     ethr =  5.17E-13,  avg # of iterations =  1.0

     negative rho (up, down):  3.506E-02 0.000E+00

     total cpu time spent up to now is     8107.3 secs

     End of self-consistent calculation

          k = 0.0000 0.0000 0.0000 ( 46961 PWs)   bands (ev):

   -69.6386 -69.5860 -69.5659 -69.5528 -69.5478 -69.5471 -69.5347 -69.5269
   -69.5256 -69.4809 -69.3032 -62.1382 -62.1162 -62.1148 -62.0713 -62.0626
   -61.9958 -61.9842 -61.9828 -61.8374 -61.7831 -54.3858 -54.3563 -54.2581
   -54.1027 -54.0940 -54.0695 -54.0480 -54.0402 -54.0222 -53.9900 -53.9310
   -41.0435 -41.0357 -41.0271 -41.0195 -41.0103 -41.0017 -40.9958 -40.9760
   -40.9648 -40.9581 -40.9445 -40.9426 -40.9306 -40.9272 -40.9242 -40.9057
   -40.8894 -40.8821 -40.8771 -40.8642 -40.8618 -40.8580 -40.8554 -40.8507
   -40.8458 -40.8305 -40.8240 -40.8101 -40.7954 -40.7834 -40.7499 -40.6568
   -40.5216 -36.1002 -36.0718 -36.0470 -36.0443 -36.0344 -36.0289 -36.0145
   -35.9769 -35.9692 -35.9656 -35.9518 -35.9445 -35.9312 -35.9150 -35.9127
   -35.9041 -35.8915 -35.8769 -35.8628 -35.8437 -35.8377 -35.8299 -35.7769
   -35.7607 -35.7465 -35.7080 -35.6751 -35.6524 -35.6332 -35.6055 -30.8206
   -30.7695 -30.6801 -30.6555 -30.6279 -30.6144 -30.6089 -30.6045 -30.5699
   -30.5410 -30.5240 -30.5202 -30.5027 -30.4784 -30.4714 -30.4636 -30.4578
   -30.4521 -30.4214 -30.4056 -30.3905 -30.3732 -30.3359 -30.3301 -30.3082
   -30.2981 -30.2846 -30.2583 -30.2474 -30.2178 -30.1807 -30.1769 -30.1386
   -10.7927  -9.7523  -9.3117  -9.2519  -9.1313  -9.0220  -8.6529  -8.4550
    -8.3903  -8.3767  -8.3294  -8.2259  -8.2039  -8.1009  -8.0447  -7.8598
    -7.7856  -7.7581  -7.6389  -7.5833  -7.5405  -7.5240  -7.4660  -7.4360
    -7.3869  -7.3735  -7.2161  -7.1430  -6.9752  -6.9290  -6.7617  -6.4880
    -4.0355  -3.9763  -3.9288  -3.7934  -3.0689  -2.9305  -2.7775  -2.7299
    -2.7055  -2.6495  -2.6268  -2.5469  -2.4916  -2.4330  -2.4237  -2.2922
    -2.1372  -2.1244  -2.0516  -1.9098  -1.8937  -1.8621  -1.8209  -1.7578
    -1.6758  -1.5972  -1.5532  -1.5000  -1.4700  -1.4605  -1.4212  -1.4112
    -1.4070  -1.3973  -1.3903  -1.3484  -1.3388  -1.3115  -1.2957  -1.2525
    -1.2028  -1.1546  -1.1380  -1.0951  -1.0363  -1.0158  -0.9856  -0.9516
    -0.9398  -0.8911  -0.8597  -0.8363  -0.7873  -0.7523  -0.7317  -0.7234
    -0.6912  -0.6747  -0.6534  -0.6263  -0.6175  -0.5066  -0.4818  -0.4040
    -0.3613  -0.3206  -0.2680  -0.2567  -0.1958  -0.1491  -0.1110  -0.0893
    -0.0699  -0.0107   0.0237   0.0355   0.0825   0.2160   0.3107   0.3632
     0.3897   0.5006   0.5798   0.6514   0.6718   0.7299   0.7843   0.9101
     0.9560   0.9891   1.0842   1.1736   1.2397   1.2883   1.3484   1.3634
     1.4746   1.5883   1.6516   1.7199   1.7346   1.8743   1.9208   2.1152
     2.1604   2.5811   2.6249   2.6810   2.7631   2.8256   2.8543   2.8938
     2.9673   3.0413   3.0550   3.0720   3.0891   3.1687   3.1729   3.2037
     3.2465   3.2516   3.2898   3.3195   3.3371   3.3576   3.3624   3.4197
     3.4430   3.4520   3.5234   3.5254   3.5528   3.5864   3.6030   3.6362
     3.6982   3.7732   3.8028   3.8502   3.8795   3.8946   3.9296   3.9686
     3.9946   4.0298   4.0604   4.0743   4.1069   4.1382   4.1865   4.1992
     4.2199   4.2583   4.2841   4.3736   4.4119   4.4720   4.4832   4.5188
     4.5407   4.5782   4.5930   4.6194   4.7039   4.7307

     the Fermi energy is     2.9383 ev

!    total energy              =   -5283.70772427 Ry
     estimated scf accuracy    <          1.3E-09 Ry
     smearing contrib. (-TS)   =      -0.03604813 Ry
     internal energy E=F+TS    =   -5283.67167614 Ry

     The total energy is F=E-TS. E is the sum of the following terms:
     one-electron contribution =  -55957.15420007 Ry
     hartree contribution      =   28002.52518846 Ry
     xc contribution           =    -787.67991741 Ry
     ewald contribution        =   23656.24099850 Ry
     one-center paw contrib.   =    -197.60374562 Ry

     convergence has been achieved in  54 iterations

     negative rho (up, down):  3.506E-02 0.000E+00

     Forces acting on atoms (cartesian axes, Ry/au):

     atom    1 type  1   force =     0.00379234    0.00633154   -0.00921863
     atom    2 type  1   force =    -0.00781661   -0.00622833    0.00451489
     atom    3 type  1   force =    -0.00017156    0.00271297    0.00044451
     atom    4 type  1   force =     0.00066165   -0.01618426    0.03038601
     atom    5 type  1   force =    -0.00456483    0.01299648    0.00141904
     atom    6 type  1   force =     0.00911179   -0.00211686    0.02745414
     atom    7 type  1   force =    -0.00020704    0.00234394    0.00610452
     atom    8 type  1   force =     0.00124032   -0.00184600    0.00220087
     atom    9 type  1   force =    -0.00154753   -0.00173390    0.00072035
     atom   10 type  1   force =    -0.00377546   -0.00149436   -0.00536206
     atom   11 type  1   force =     0.00301237   -0.00041290   -0.00097410
     atom   12 type  2   force =     0.00029110    0.00251048   -0.00917285
     atom   13 type  2   force =     0.00061021   -0.00478708   -0.00058318
     atom   14 type  2   force =     0.02173501   -0.00437802    0.00796231
     atom   15 type  2   force =    -0.01031949    0.00261449    0.11362595
     atom   16 type  2   force =     0.00697857   -0.00127011    0.09522055
     atom   17 type  2   force =    -0.00204314   -0.00019271   -0.00004137
     atom   18 type  2   force =    -0.00136180    0.00126179    0.00178126
     atom   19 type  2   force =     0.00149780    0.00260748    0.00417837
     atom   20 type  2   force =     0.00385190   -0.00891229   -0.01074789
     atom   21 type  2   force =     0.00237155    0.02195241   -0.01301561
     atom   22 type  3   force =    -0.00972075    0.00368768   -0.00725122
     atom   23 type  3   force =    -0.02205944   -0.01212143    0.00610769
     atom   24 type  3   force =     0.02807693    0.02113848   -0.01993033
     atom   25 type  3   force =     0.01424411   -0.01419346    0.06801607
     atom   26 type  3   force =    -0.00442156    0.01076261    0.12510333
     atom   27 type  3   force =     0.00261178   -0.00162091   -0.00319897
     atom   28 type  3   force =    -0.00994854   -0.00069095    0.03036763
     atom   29 type  3   force =    -0.00147242    0.00337561   -0.00295114
     atom   30 type  3   force =     0.00186992   -0.00219314   -0.00182032
     atom   31 type  3   force =     0.00943909   -0.00289174   -0.02050055
     atom   32 type  3   force =    -0.01167886   -0.00534766   -0.01049339
     atom   33 type  4   force =     0.00229445   -0.00756458   -0.03425288
     atom   34 type  4   force =     0.00977970    0.01256225   -0.00386002
     atom   35 type  4   force =    -0.00270345   -0.01712703   -0.01914534
     atom   36 type  4   force =     0.00153828    0.01093227   -0.03421914
     atom   37 type  4   force =     0.00137468    0.00081469    0.00415967
     atom   38 type  4   force =    -0.00143231   -0.00086098    0.00238774
     atom   39 type  4   force =    -0.00129615    0.00093467   -0.00047316
     atom   40 type  4   force =    -0.00064586    0.00048459    0.00242621
     atom   41 type  4   force =     0.00402009   -0.00293870    0.00014070
     atom   42 type  4   force =     0.00812986    0.00210508    0.00430634
     atom   43 type  4   force =    -0.00589423    0.00249185    0.00291223
     atom   44 type  4   force =    -0.00287387    0.00353501    0.00291798
     atom   45 type  4   force =     0.00467941    0.00564057   -0.03710630
     atom   46 type  4   force =     0.00092097    0.00216903   -0.04381873
     atom   47 type  4   force =    -0.01012899   -0.00271210   -0.02099228
     atom   48 type  4   force =    -0.01447825   -0.00763689   -0.02406209
     atom   49 type  4   force =     0.00928135   -0.00181588    0.00489590
     atom   50 type  4   force =     0.00061272   -0.00625132    0.00291952
     atom   51 type  4   force =    -0.00227647    0.00013946    0.00400610
     atom   52 type  4   force =    -0.00142697   -0.00695947    0.00332080
     atom   53 type  4   force =    -0.00181802   -0.00608316   -0.03376620
     atom   54 type  4   force =    -0.00520840    0.00799615   -0.03102710
     atom   55 type  4   force =    -0.00033990    0.00360445   -0.03717791
     atom   56 type  4   force =    -0.00145917   -0.00841299   -0.02736937
     atom   57 type  4   force =    -0.01682654    0.00843668   -0.02478237
     atom   58 type  4   force =    -0.00942902   -0.00675913   -0.03035083
     atom   59 type  4   force =     0.01454738    0.01425804   -0.03044810
     atom   60 type  4   force =     0.00226292   -0.01023184   -0.01861256
     atom   61 type  4   force =    -0.00155857    0.00268819    0.00609893
     atom   62 type  4   force =    -0.00068920    0.00005593   -0.00345199
     atom   63 type  4   force =     0.00038913    0.00041912    0.00493307
     atom   64 type  4   force =     0.00036701    0.00040620   -0.00085471

     Total force =     0.034439     Total SCF correction =     0.000082
     Energy error            =      1.8E-03 Ry
     Gradient error          =      9.7E-03 Ry/Bohr

     number of scf cycles    =  19
     number of bfgs steps    =  18

     energy             old  =   -5283.7059074364 Ry
     energy             new  =   -5283.7077242676 Ry

     CASE: energy            _new < energy            _old

     new trust radius        =       0.0250401278 bohr
     new conv_thr            =       0.0000000010 Ry


ATOMIC_POSITIONS (angstrom)
Ti               8.3401363320       -0.0179750630       15.7840387490
Ti               0.0291331002        8.3621570543       11.5803477355    0   0   0
Ti               2.0903091748        4.2042440614       13.6927395207
Ti               8.3795041056        2.0957563981        9.4724378689    0   0   0
Ti               8.3750099733        6.2687152092        9.4933225157    0   0   0
Ti               4.2170671874        6.2898439467        9.4911460380    0   0   0
Ti               8.3717687767        2.0910774906       13.6458419503
Ti               8.3893792901        6.2666334346       13.6373530158
Ti               4.2053816156        6.2679880394       13.6471827508
Ti               2.0890806700        6.2381478789       15.8135011446
Ti               6.2602855145        6.2357210278       15.7863306414
V                8.3104048418        4.0828406947       15.6871363047
V                4.1482806144        4.0305474864       15.6549263252
V                4.1453105473        4.2119457891       11.5975026988    0   0   0
V                2.1879867013        0.0520231596        9.5054883674    0   0   0
V                2.1522427348        4.1319303501        9.4904675789    0   0   0
V                2.1078737761        8.3545570138       13.6591034928
V                6.3043808191        4.2196074900       13.7345672766
V                4.1885757384        2.1113447482       13.5486711419
V                2.1048639148        6.2714192178       11.5723879270    0   0   0
V                6.3158808164        6.1438819511       11.5700667150    0   0   0
Cr               4.1733956503       -0.0478118308       15.5799809117
Cr               0.1179128009        4.1786640750       11.5195623927    0   0   0
Cr               4.1681598842        8.2577799257       11.6615352591    0   0   0
Cr               6.1999882077        0.1106418811        9.6948923906    0   0   0
Cr               6.2007452456        4.0563627707        9.3394942948    0   0   0
Cr               6.3238972210        8.2762438454       13.5817217482
Cr               4.2149984025        2.0754774019        9.7444374941    0   0   0
Cr               2.0355256863        2.0367016984       15.5900229298
Cr               6.1663989701        1.9842070852       15.5398742622
Cr               2.0054620409        2.1149661174       11.6192682974    0   0   0
Cr               6.3992485267        2.2488278238       11.6549867199    0   0   0
C                8.3671464633        0.0123762133        9.4921945368    0   0   0
C                8.3685510870        4.1683341954        9.4949958325    0   0   0
C                4.2233794382        0.0660683478        9.5137772640    0   0   0
C                4.2071394793        4.1170355077        9.4900603783    0   0   0
C                8.3723580161       -0.0138415166       13.7473165632
C                8.3524043244        4.1634332417       13.7620395020
C                4.2219043484        0.0016506672       13.7121578281
C                4.2113173302        4.1220907114       13.7108466185
C                2.2425847491        0.1404252783       15.8984309195
C                2.1732653079        4.1655632110       15.9214342538
C                6.2821620198        0.1130167536       15.9048939044
C                6.3081381103        4.1472229458       15.8934573959
C                2.1521326937        0.0175132539       11.5903255372    0   0   0
C                2.1078429860        4.1683083653       11.5671868517    0   0   0
C                6.2417937451        0.0188099573       11.6002801854    0   0   0
C                6.3283074126        4.1569384024       11.5682471185    0   0   0
C                8.5324182366        2.1448619250       15.9006111701
C                8.4135890484        6.3111084107       16.0148262166
C                4.2884319677        2.1139781939       15.7564685986
C                4.2353455144        6.4735941812       15.9510485935
C                0.0147673152        2.1438801594       11.5939557114    0   0   0
C                0.0200697416        6.2277703895       11.5821679336    0   0   0
C                4.2182428542        2.0594943016       11.6100232202    0   0   0
C                4.2117703951        6.2583221129       11.5919858628    0   0   0
C                2.1713130363        2.0860319016        9.4919958919    0   0   0
C                2.1164500536        6.2753611976        9.5156635851    0   0   0
C                6.2203151227        2.0809934926        9.4961719556    0   0   0
C                6.2861737462        6.2618311600        9.5257047400    0   0   0
C                2.1214595140        2.0506586576       13.7194243887
C                2.1075634039        6.2883895040       13.7750266562
C                6.2443615346        2.0526019546       13.6787638134
C                6.2970836089        6.2391805889       13.7330805804



     Writing config-only to output data dir ./tmp/hec3_CrTiV_f100_CO_clean.save/ :
     XML data file
     NEW-OLD atomic charge density approx. for the potential

     Check: negative core charge=   -0.000005

     negative rho (up, down):  3.539E-02 0.000E+00

     total cpu time spent up to now is     8117.5 secs

     Self-consistent Calculation

     iteration #  1     ecut=    60.00 Ry     beta= 0.30
     Davidson diagonalization with overlap
     ethr =  1.00E-06,  avg # of iterations =  6.0

     negative rho (up, down):  3.539E-02 0.000E+00

     total cpu time spent up to now is     8128.1 secs

     total energy              =   -5283.70691827 Ry
     estimated scf accuracy    <       0.00457835 Ry

     iteration #  2     ecut=    60.00 Ry     beta= 0.30
     Davidson diagonalization with overlap
     ethr =  8.42E-07,  avg # of iterations = 18.0

     negative rho (up, down):  3.540E-02 0.000E+00

     total cpu time spent up to now is     8145.3 secs

     total energy              =   -5283.69538761 Ry
     estimated scf accuracy    <       0.72932429 Ry

     iteration #  3     ecut=    60.00 Ry     beta= 0.30
     Davidson diagonalization with overlap
     ethr =  8.42E-07,  avg # of iterations = 15.0

     negative rho (up, down):  3.539E-02 0.000E+00

     total cpu time spent up to now is     8161.5 secs

     total energy              =   -5283.70654513 Ry
     estimated scf accuracy    <       0.08997937 Ry

     iteration #  4     ecut=    60.00 Ry     beta= 0.30
     Davidson diagonalization with overlap
     ethr =  8.42E-07,  avg # of iterations =  6.0

     negative rho (up, down):  3.538E-02 0.000E+00

     total cpu time spent up to now is     8170.7 secs

     total energy              =   -5283.70810649 Ry
     estimated scf accuracy    <       0.01784544 Ry

     iteration #  5     ecut=    60.00 Ry     beta= 0.30
     Davidson diagonalization with overlap
     ethr =  8.42E-07,  avg # of iterations =  2.0

     negative rho (up, down):  3.539E-02 0.000E+00

     total cpu time spent up to now is     8179.0 secs

     total energy              =   -5283.70852809 Ry
     estimated scf accuracy    <       0.00390122 Ry

     iteration #  6     ecut=    60.00 Ry     beta= 0.30
     Davidson diagonalization with overlap
     ethr =  7.17E-07,  avg # of iterations =  2.0

     negative rho (up, down):  3.539E-02 0.000E+00

     total cpu time spent up to now is     8186.5 secs

     total energy              =   -5283.70864761 Ry
     estimated scf accuracy    <       0.00129603 Ry

     iteration #  7     ecut=    60.00 Ry     beta= 0.30
     Davidson diagonalization with overlap
     ethr =  2.38E-07,  avg # of iterations =  5.0

     negative rho (up, down):  3.539E-02 0.000E+00

     total cpu time spent up to now is     8195.2 secs

     total energy              =   -5283.70868234 Ry
     estimated scf accuracy    <       0.00120298 Ry

     iteration #  8     ecut=    60.00 Ry     beta= 0.30
     Davidson diagonalization with overlap
     ethr =  2.21E-07,  avg # of iterations =  1.0

     negative rho (up, down):  3.539E-02 0.000E+00

     total cpu time spent up to now is     8201.8 secs

     total energy              =   -5283.70869956 Ry
     estimated scf accuracy    <       0.00083847 Ry

     iteration #  9     ecut=    60.00 Ry     beta= 0.30
     Davidson diagonalization with overlap
     ethr =  1.54E-07,  avg # of iterations =  2.0

     negative rho (up, down):  3.539E-02 0.000E+00

     total cpu time spent up to now is     8209.1 secs

     total energy              =   -5283.70872006 Ry
     estimated scf accuracy    <       0.00042790 Ry

     iteration # 10     ecut=    60.00 Ry     beta= 0.30
     Davidson diagonalization with overlap
     ethr =  7.87E-08,  avg # of iterations =  2.0

     negative rho (up, down):  3.539E-02 0.000E+00

     total cpu time spent up to now is     8216.6 secs

     total energy              =   -5283.70873055 Ry
     estimated scf accuracy    <       0.00017453 Ry

     iteration # 11     ecut=    60.00 Ry     beta= 0.30
     Davidson diagonalization with overlap
     ethr =  3.21E-08,  avg # of iterations =  2.0

     negative rho (up, down):  3.539E-02 0.000E+00

     total cpu time spent up to now is     8226.0 secs

     total energy              =   -5283.70873285 Ry
     estimated scf accuracy    <       0.00021930 Ry

     iteration # 12     ecut=    60.00 Ry     beta= 0.30
     Davidson diagonalization with overlap
     ethr =  3.21E-08,  avg # of iterations =  2.0

     negative rho (up, down):  3.539E-02 0.000E+00

     total cpu time spent up to now is     8232.8 secs

     total energy              =   -5283.70873262 Ry
     estimated scf accuracy    <       0.00015016 Ry

     iteration # 13     ecut=    60.00 Ry     beta= 0.30
     Davidson diagonalization with overlap
     ethr =  2.76E-08,  avg # of iterations =  2.0

     negative rho (up, down):  3.539E-02 0.000E+00

     total cpu time spent up to now is     8240.7 secs

     total energy              =   -5283.70871317 Ry
     estimated scf accuracy    <       0.00195184 Ry

     iteration # 14     ecut=    60.00 Ry     beta= 0.30
     Davidson diagonalization with overlap
     ethr =  2.76E-08,  avg # of iterations =  1.0

     negative rho (up, down):  3.539E-02 0.000E+00

     total cpu time spent up to now is     8247.4 secs

     total energy              =   -5283.70873671 Ry
     estimated scf accuracy    <       0.00026818 Ry

     iteration # 15     ecut=    60.00 Ry     beta= 0.30
     Davidson diagonalization with overlap
     ethr =  2.76E-08,  avg # of iterations =  1.0

     negative rho (up, down):  3.539E-02 0.000E+00

     total cpu time spent up to now is     8254.2 secs

     total energy              =   -5283.70874336 Ry
     estimated scf accuracy    <       0.00001125 Ry

     iteration # 16     ecut=    60.00 Ry     beta= 0.30
     Davidson diagonalization with overlap
     ethr =  2.07E-09,  avg # of iterations =  6.0

     negative rho (up, down):  3.539E-02 0.000E+00

     total cpu time spent up to now is     8263.2 secs

     total energy              =   -5283.70874311 Ry
     estimated scf accuracy    <       0.00004385 Ry

     iteration # 17     ecut=    60.00 Ry     beta= 0.30
     Davidson diagonalization with overlap
     ethr =  2.07E-09,  avg # of iterations =  5.0

     negative rho (up, down):  3.539E-02 0.000E+00

     total cpu time spent up to now is     8272.9 secs

     total energy              =   -5283.70874411 Ry
     estimated scf accuracy    <       0.00001503 Ry

     iteration # 18     ecut=    60.00 Ry     beta= 0.30
     Davidson diagonalization with overlap
     ethr =  2.07E-09,  avg # of iterations =  1.0

     negative rho (up, down):  3.539E-02 0.000E+00

     total cpu time spent up to now is     8279.7 secs

     total energy              =   -5283.70874444 Ry
     estimated scf accuracy    <       0.00000883 Ry

     iteration # 19     ecut=    60.00 Ry     beta= 0.30
     Davidson diagonalization with overlap
     ethr =  1.62E-09,  avg # of iterations =  2.0

     negative rho (up, down):  3.539E-02 0.000E+00

     total cpu time spent up to now is     8287.4 secs

     total energy              =   -5283.70874451 Ry
     estimated scf accuracy    <       0.00000842 Ry

     iteration # 20     ecut=    60.00 Ry     beta= 0.30
     Davidson diagonalization with overlap
     ethr =  1.55E-09,  avg # of iterations =  1.0

     negative rho (up, down):  3.539E-02 0.000E+00

     total cpu time spent up to now is     8293.9 secs

     total energy              =   -5283.70874467 Ry
     estimated scf accuracy    <       0.00000415 Ry

     iteration # 21     ecut=    60.00 Ry     beta= 0.30
     Davidson diagonalization with overlap
     ethr =  7.63E-10,  avg # of iterations =  2.0

     negative rho (up, down):  3.539E-02 0.000E+00

     total cpu time spent up to now is     8301.5 secs

     total energy              =   -5283.70874472 Ry
     estimated scf accuracy    <       0.00000550 Ry

     iteration # 22     ecut=    60.00 Ry     beta= 0.30
     Davidson diagonalization with overlap
     ethr =  7.63E-10,  avg # of iterations =  1.0

     negative rho (up, down):  3.539E-02 0.000E+00

     total cpu time spent up to now is     8308.2 secs

     total energy              =   -5283.70874490 Ry
     estimated scf accuracy    <       0.00000115 Ry

     iteration # 23     ecut=    60.00 Ry     beta= 0.30
     Davidson diagonalization with overlap
     ethr =  2.12E-10,  avg # of iterations =  2.0

     negative rho (up, down):  3.539E-02 0.000E+00

     total cpu time spent up to now is     8315.2 secs

     total energy              =   -5283.70874488 Ry
     estimated scf accuracy    <       0.00000225 Ry

     iteration # 24     ecut=    60.00 Ry     beta= 0.30
     Davidson diagonalization with overlap
     ethr =  2.12E-10,  avg # of iterations =  1.0

     negative rho (up, down):  3.539E-02 0.000E+00

     total cpu time spent up to now is     8321.3 secs

     total energy              =   -5283.70874485 Ry
     estimated scf accuracy    <       0.00000514 Ry

     iteration # 25     ecut=    60.00 Ry     beta= 0.30
     Davidson diagonalization with overlap
     ethr =  2.12E-10,  avg # of iterations =  2.0

     negative rho (up, down):  3.539E-02 0.000E+00

     total cpu time spent up to now is     8329.0 secs

     total energy              =   -5283.70874488 Ry
     estimated scf accuracy    <       0.00000262 Ry

     iteration # 26     ecut=    60.00 Ry     beta= 0.30
     Davidson diagonalization with overlap
     ethr =  2.12E-10,  avg # of iterations =  1.0

     negative rho (up, down):  3.539E-02 0.000E+00

     total cpu time spent up to now is     8335.6 secs

     total energy              =   -5283.70874494 Ry
     estimated scf accuracy    <       0.00000081 Ry

     iteration # 27     ecut=    60.00 Ry     beta= 0.30
     Davidson diagonalization with overlap
     ethr =  1.50E-10,  avg # of iterations =  2.0

     negative rho (up, down):  3.539E-02 0.000E+00

     total cpu time spent up to now is     8343.5 secs

     total energy              =   -5283.70874495 Ry
     estimated scf accuracy    <       0.00000099 Ry

     iteration # 28     ecut=    60.00 Ry     beta= 0.30
     Davidson diagonalization with overlap
     ethr =  1.50E-10,  avg # of iterations =  1.0

     negative rho (up, down):  3.539E-02 0.000E+00

     total cpu time spent up to now is     8350.1 secs

     total energy              =   -5283.70874497 Ry
     estimated scf accuracy    <       0.00000045 Ry

     iteration # 29     ecut=    60.00 Ry     beta= 0.30
     Davidson diagonalization with overlap
     ethr =  8.20E-11,  avg # of iterations =  1.0

     negative rho (up, down):  3.539E-02 0.000E+00

     total cpu time spent up to now is     8356.9 secs

     total energy              =   -5283.70874497 Ry
     estimated scf accuracy    <       0.00000029 Ry

     iteration # 30     ecut=    60.00 Ry     beta= 0.30
     Davidson diagonalization with overlap
     ethr =  5.27E-11,  avg # of iterations =  2.0

     negative rho (up, down):  3.539E-02 0.000E+00

     total cpu time spent up to now is     8364.1 secs

     total energy              =   -5283.70874497 Ry
     estimated scf accuracy    <       0.00000041 Ry

     iteration # 31     ecut=    60.00 Ry     beta= 0.30
     Davidson diagonalization with overlap
     ethr =  5.27E-11,  avg # of iterations =  1.0

     negative rho (up, down):  3.539E-02 0.000E+00

     total cpu time spent up to now is     8370.6 secs

     total energy              =   -5283.70874498 Ry
     estimated scf accuracy    <       0.00000014 Ry

     iteration # 32     ecut=    60.00 Ry     beta= 0.30
     Davidson diagonalization with overlap
     ethr =  2.58E-11,  avg # of iterations =  1.0

     negative rho (up, down):  3.539E-02 0.000E+00

     total cpu time spent up to now is     8377.4 secs

     total energy              =   -5283.70874499 Ry
     estimated scf accuracy    <       0.00000005 Ry

     iteration # 33     ecut=    60.00 Ry     beta= 0.30
     Davidson diagonalization with overlap
     ethr =  8.52E-12,  avg # of iterations =  1.0

     negative rho (up, down):  3.539E-02 0.000E+00

     total cpu time spent up to now is     8387.5 secs

     total energy              =   -5283.70874499 Ry
     estimated scf accuracy    <       0.00000003 Ry

     iteration # 34     ecut=    60.00 Ry     beta= 0.30
     Davidson diagonalization with overlap
     ethr =  5.57E-12,  avg # of iterations =  2.0

     negative rho (up, down):  3.539E-02 0.000E+00

     total cpu time spent up to now is     8394.4 secs

     total energy              =   -5283.70874499 Ry
     estimated scf accuracy    <       0.00000008 Ry

     iteration # 35     ecut=    60.00 Ry     beta= 0.30
     Davidson diagonalization with overlap
     ethr =  5.57E-12,  avg # of iterations =  2.0

     negative rho (up, down):  3.539E-02 0.000E+00

     total cpu time spent up to now is     8401.6 secs

     total energy              =   -5283.70874499 Ry
     estimated scf accuracy    <       0.00000008 Ry

     iteration # 36     ecut=    60.00 Ry     beta= 0.30
     Davidson diagonalization with overlap
     ethr =  5.57E-12,  avg # of iterations =  1.0

     negative rho (up, down):  3.539E-02 0.000E+00

     total cpu time spent up to now is     8408.3 secs

     total energy              =   -5283.70874499 Ry
     estimated scf accuracy    <       0.00000004 Ry

     iteration # 37     ecut=    60.00 Ry     beta= 0.30
     Davidson diagonalization with overlap
     ethr =  5.57E-12,  avg # of iterations =  1.0

     negative rho (up, down):  3.539E-02 0.000E+00

     total cpu time spent up to now is     8414.9 secs

     total energy              =   -5283.70874499 Ry
     estimated scf accuracy    <       0.00000002 Ry

     iteration # 38     ecut=    60.00 Ry     beta= 0.30
     Davidson diagonalization with overlap
     ethr =  3.83E-12,  avg # of iterations =  1.0

     negative rho (up, down):  3.539E-02 0.000E+00

     total cpu time spent up to now is     8421.4 secs

     total energy              =   -5283.70874499 Ry
     estimated scf accuracy    <       0.00000002 Ry

     iteration # 39     ecut=    60.00 Ry     beta= 0.30
     Davidson diagonalization with overlap
     ethr =  3.83E-12,  avg # of iterations =  1.0

     negative rho (up, down):  3.539E-02 0.000E+00

     total cpu time spent up to now is     8427.9 secs

     total energy              =   -5283.70874499 Ry
     estimated scf accuracy    <       0.00000002 Ry

     iteration # 40     ecut=    60.00 Ry     beta= 0.30
     Davidson diagonalization with overlap
     ethr =  3.26E-12,  avg # of iterations =  1.0

     negative rho (up, down):  3.539E-02 0.000E+00

     total cpu time spent up to now is     8434.6 secs

     total energy              =   -5283.70874499 Ry
     estimated scf accuracy    <       0.00000002 Ry

     iteration # 41     ecut=    60.00 Ry     beta= 0.30
     Davidson diagonalization with overlap
     ethr =  3.26E-12,  avg # of iterations =  1.0

     negative rho (up, down):  3.539E-02 0.000E+00

     total cpu time spent up to now is     8441.0 secs

     total energy              =   -5283.70874499 Ry
     estimated scf accuracy    <          9.6E-09 Ry

     iteration # 42     ecut=    60.00 Ry     beta= 0.30
     Davidson diagonalization with overlap
     ethr =  1.77E-12,  avg # of iterations =  2.0

     negative rho (up, down):  3.539E-02 0.000E+00

     total cpu time spent up to now is     8448.2 secs

     total energy              =   -5283.70874499 Ry
     estimated scf accuracy    <          9.3E-09 Ry

     iteration # 43     ecut=    60.00 Ry     beta= 0.30
     Davidson diagonalization with overlap
     ethr =  1.72E-12,  avg # of iterations =  1.0

     negative rho (up, down):  3.539E-02 0.000E+00

     total cpu time spent up to now is     8455.0 secs

     total energy              =   -5283.70874499 Ry
     estimated scf accuracy    <          5.5E-09 Ry

     iteration # 44     ecut=    60.00 Ry     beta= 0.30
     Davidson diagonalization with overlap
     ethr =  1.01E-12,  avg # of iterations =  1.0

     negative rho (up, down):  3.539E-02 0.000E+00

     total cpu time spent up to now is     8461.6 secs

     total energy              =   -5283.70874499 Ry
     estimated scf accuracy    <          5.5E-09 Ry

     iteration # 45     ecut=    60.00 Ry     beta= 0.30
     Davidson diagonalization with overlap
     ethr =  1.01E-12,  avg # of iterations =  1.0

     negative rho (up, down):  3.539E-02 0.000E+00

     total cpu time spent up to now is     8468.0 secs

     total energy              =   -5283.70874499 Ry
     estimated scf accuracy    <          7.1E-09 Ry

     iteration # 46     ecut=    60.00 Ry     beta= 0.30
     Davidson diagonalization with overlap
     ethr =  1.01E-12,  avg # of iterations =  1.0

     negative rho (up, down):  3.539E-02 0.000E+00

     total cpu time spent up to now is     8474.3 secs

     total energy              =   -5283.70874499 Ry
     estimated scf accuracy    <          3.1E-09 Ry

     iteration # 47     ecut=    60.00 Ry     beta= 0.30
     Davidson diagonalization with overlap
     ethr =  5.72E-13,  avg # of iterations =  1.0

     negative rho (up, down):  3.539E-02 0.000E+00

     total cpu time spent up to now is     8481.0 secs

     total energy              =   -5283.70874499 Ry
     estimated scf accuracy    <          1.2E-09 Ry

     iteration # 48     ecut=    60.00 Ry     beta= 0.30
     Davidson diagonalization with overlap
     ethr =  2.19E-13,  avg # of iterations =  1.0

     negative rho (up, down):  3.539E-02 0.000E+00

     total cpu time spent up to now is     8487.9 secs

     total energy              =   -5283.70874499 Ry
     estimated scf accuracy    <          1.2E-09 Ry

     iteration # 49     ecut=    60.00 Ry     beta= 0.30
     Davidson diagonalization with overlap
     ethr =  2.15E-13,  avg # of iterations =  1.0

     negative rho (up, down):  3.539E-02 0.000E+00

     total cpu time spent up to now is     8494.5 secs

     End of self-consistent calculation

          k = 0.0000 0.0000 0.0000 ( 46961 PWs)   bands (ev):

   -69.6376 -69.5888 -69.5677 -69.5513 -69.5501 -69.5492 -69.5355 -69.5281
   -69.5193 -69.4824 -69.3044 -62.1398 -62.1182 -62.1165 -62.0707 -62.0645
   -61.9952 -61.9861 -61.9814 -61.8347 -61.7865 -54.3876 -54.3575 -54.2597
   -54.1047 -54.0949 -54.0728 -54.0515 -54.0450 -54.0261 -53.9986 -53.9306
   -41.0450 -41.0363 -41.0275 -41.0247 -41.0121 -41.0031 -40.9939 -40.9733
   -40.9632 -40.9596 -40.9452 -40.9424 -40.9318 -40.9273 -40.9259 -40.9061
   -40.8908 -40.8834 -40.8796 -40.8654 -40.8642 -40.8572 -40.8546 -40.8522
   -40.8424 -40.8262 -40.8251 -40.8118 -40.7965 -40.7841 -40.7508 -40.6584
   -40.5229 -36.1016 -36.0735 -36.0494 -36.0460 -36.0362 -36.0292 -36.0154
   -35.9786 -35.9708 -35.9657 -35.9511 -35.9449 -35.9331 -35.9149 -35.9132
   -35.9046 -35.8926 -35.8788 -35.8637 -35.8435 -35.8393 -35.8304 -35.7753
   -35.7625 -35.7446 -35.7067 -35.6773 -35.6567 -35.6320 -35.6059 -30.8225
   -30.7707 -30.6815 -30.6572 -30.6296 -30.6156 -30.6113 -30.6059 -30.5716
   -30.5442 -30.5260 -30.5216 -30.5067 -30.4801 -30.4733 -30.4652 -30.4613
   -30.4550 -30.4242 -30.4080 -30.3946 -30.3780 -30.3398 -30.3334 -30.3122
   -30.3016 -30.2879 -30.2624 -30.2492 -30.2188 -30.1847 -30.1790 -30.1446
   -10.7935  -9.7506  -9.3136  -9.2526  -9.1331  -9.0232  -8.6543  -8.4526
    -8.3925  -8.3751  -8.3303  -8.2273  -8.2041  -8.1023  -8.0461  -7.8609
    -7.7881  -7.7601  -7.6408  -7.5854  -7.5426  -7.5252  -7.4671  -7.4386
    -7.3909  -7.3707  -7.2146  -7.1416  -6.9759  -6.9304  -6.7629  -6.4929
    -4.0386  -3.9771  -3.9288  -3.7966  -3.0691  -2.9317  -2.7768  -2.7296
    -2.7062  -2.6508  -2.6283  -2.5487  -2.4942  -2.4349  -2.4251  -2.2954
    -2.1384  -2.1246  -2.0532  -1.9090  -1.8926  -1.8637  -1.8229  -1.7588
    -1.6749  -1.5977  -1.5499  -1.5025  -1.4707  -1.4612  -1.4227  -1.4120
    -1.4096  -1.3992  -1.3924  -1.3481  -1.3390  -1.3154  -1.2959  -1.2510
    -1.2048  -1.1575  -1.1417  -1.0943  -1.0386  -1.0171  -0.9858  -0.9526
    -0.9407  -0.8929  -0.8613  -0.8347  -0.7897  -0.7531  -0.7321  -0.7225
    -0.6910  -0.6743  -0.6538  -0.6282  -0.6202  -0.5091  -0.4807  -0.4008
    -0.3617  -0.3234  -0.2678  -0.2527  -0.1987  -0.1510  -0.1110  -0.0932
    -0.0692  -0.0121   0.0211   0.0336   0.0800   0.2110   0.3073   0.3585
     0.3871   0.4944   0.5765   0.6483   0.6640   0.7265   0.7824   0.9090
     0.9560   0.9856   1.0793   1.1714   1.2390   1.2861   1.3456   1.3591
     1.4743   1.5845   1.6523   1.7165   1.7349   1.8735   1.9234   2.1048
     2.1588   2.5811   2.6225   2.6796   2.7603   2.8248   2.8520   2.8924
     2.9667   3.0403   3.0510   3.0691   3.0896   3.1681   3.1707   3.2035
     3.2446   3.2518   3.2902   3.3185   3.3383   3.3579   3.3643   3.4189
     3.4439   3.4513   3.5223   3.5296   3.5504   3.5836   3.6021   3.6393
     3.6978   3.7719   3.8040   3.8494   3.8776   3.8924   3.9300   3.9680
     3.9903   4.0292   4.0556   4.0722   4.1047   4.1363   4.1869   4.1977
     4.2196   4.2573   4.2821   4.3731   4.4079   4.4709   4.4824   4.5183
     4.5390   4.5777   4.5923   4.6192   4.7035   4.7273

     the Fermi energy is     2.9367 ev

!    total energy              =   -5283.70874499 Ry
     estimated scf accuracy    <          7.8E-10 Ry
     smearing contrib. (-TS)   =      -0.03593353 Ry
     internal energy E=F+TS    =   -5283.67281146 Ry

     The total energy is F=E-TS. E is the sum of the following terms:
     one-electron contribution =  -55959.72068707 Ry
     hartree contribution      =   28003.78300190 Ry
     xc contribution           =    -787.68155240 Ry
     ewald contribution        =   23657.55037900 Ry
     one-center paw contrib.   =    -197.60395290 Ry

     convergence has been achieved in  49 iterations

     negative rho (up, down):  3.539E-02 0.000E+00

     Forces acting on atoms (cartesian axes, Ry/au):

     atom    1 type  1   force =     0.00183493    0.00366185   -0.00719928
     atom    2 type  1   force =    -0.00750839   -0.00598527    0.00377404
     atom    3 type  1   force =    -0.00005730    0.00237685   -0.00030896
     atom    4 type  1   force =     0.00070139   -0.01627161    0.03040707
     atom    5 type  1   force =    -0.00456904    0.01299880    0.00143103
     atom    6 type  1   force =     0.00914242   -0.00218423    0.02745730
     atom    7 type  1   force =    -0.00030324    0.00112190    0.00406212
     atom    8 type  1   force =     0.00087895   -0.00038555    0.00236428
     atom    9 type  1   force =    -0.00118830   -0.00176397    0.00218050
     atom   10 type  1   force =    -0.00001779   -0.00252292   -0.00615988
     atom   11 type  1   force =    -0.00017858   -0.00004758   -0.00207561
     atom   12 type  2   force =    -0.00020462    0.00240925   -0.00700070
     atom   13 type  2   force =     0.00262986   -0.00076884    0.00040130
     atom   14 type  2   force =     0.02168325   -0.00435671    0.00775360
     atom   15 type  2   force =    -0.01041550    0.00254701    0.11353184
     atom   16 type  2   force =     0.00696691   -0.00128378    0.09520143
     atom   17 type  2   force =    -0.00189190    0.00006339   -0.00077107
     atom   18 type  2   force =    -0.00103175    0.00201031    0.00013281
     atom   19 type  2   force =     0.00097570    0.00206692    0.00353712
     atom   20 type  2   force =     0.00381150   -0.00900634   -0.01092627
     atom   21 type  2   force =     0.00253862    0.02115767   -0.01302036
     atom   22 type  3   force =    -0.00617912    0.00214134   -0.00515210
     atom   23 type  3   force =    -0.02205522   -0.01237058    0.00563151
     atom   24 type  3   force =     0.02745342    0.02152361   -0.01955258
     atom   25 type  3   force =     0.01426025   -0.01423909    0.06782137
     atom   26 type  3   force =    -0.00442329    0.01089367    0.12504384
     atom   27 type  3   force =     0.00121793   -0.00107568   -0.00305286
     atom   28 type  3   force =    -0.00998784   -0.00062752    0.03038459
     atom   29 type  3   force =     0.00116830    0.00095148   -0.00225384
     atom   30 type  3   force =     0.00158392   -0.00351605   -0.00059209
     atom   31 type  3   force =     0.00945801   -0.00247837   -0.02034497
     atom   32 type  3   force =    -0.01161856   -0.00468192   -0.01038260
     atom   33 type  4   force =     0.00233114   -0.00753625   -0.03439045
     atom   34 type  4   force =     0.00970340    0.01255863   -0.00385134
     atom   35 type  4   force =    -0.00265053   -0.01706185   -0.01943259
     atom   36 type  4   force =     0.00153373    0.01091878   -0.03415416
     atom   37 type  4   force =     0.00114563    0.00138967    0.00563607
     atom   38 type  4   force =    -0.00074781   -0.00094811    0.00245052
     atom   39 type  4   force =    -0.00138103    0.00074131    0.00111577
     atom   40 type  4   force =    -0.00047839   -0.00065676    0.00181086
     atom   41 type  4   force =     0.00145668   -0.00111316   -0.00126251
     atom   42 type  4   force =     0.00478366    0.00137437    0.00313636
     atom   43 type  4   force =    -0.00261453    0.00248530    0.00208272
     atom   44 type  4   force =    -0.00093816    0.00201714    0.00246384
     atom   45 type  4   force =     0.00469513    0.00575774   -0.03710555
     atom   46 type  4   force =     0.00081646    0.00218647   -0.04359107
     atom   47 type  4   force =    -0.00973377   -0.00264010   -0.02098182
     atom   48 type  4   force =    -0.01444676   -0.00767942   -0.02398618
     atom   49 type  4   force =     0.00562722   -0.00053133    0.00389684
     atom   50 type  4   force =    -0.00056225   -0.00308992    0.00247774
     atom   51 type  4   force =    -0.00320763   -0.00033069    0.00255236
     atom   52 type  4   force =    -0.00109011   -0.00511061    0.00210554
     atom   53 type  4   force =    -0.00183401   -0.00588163   -0.03298909
     atom   54 type  4   force =    -0.00526009    0.00778500   -0.03173205
     atom   55 type  4   force =    -0.00045467    0.00389570   -0.03684106
     atom   56 type  4   force =    -0.00149657   -0.00843308   -0.02786283
     atom   57 type  4   force =    -0.01682811    0.00843746   -0.02465278
     atom   58 type  4   force =    -0.00941073   -0.00671719   -0.03051700
     atom   59 type  4   force =     0.01453652    0.01418818   -0.03040447
     atom   60 type  4   force =     0.00222868   -0.01022764   -0.01879188
     atom   61 type  4   force =    -0.00107715    0.00197883    0.00566089
     atom   62 type  4   force =    -0.00014476   -0.00041538   -0.00178091
     atom   63 type  4   force =     0.00088094    0.00017782    0.00561575
     atom   64 type  4   force =    -0.00005703    0.00012264    0.00099988

     Total force =     0.025568     Total SCF correction =     0.000055
     Energy error            =      1.0E-03 Ry
     Gradient error          =      7.2E-03 Ry/Bohr

     number of scf cycles    =  20
     number of bfgs steps    =  19

     energy             old  =   -5283.7077242676 Ry
     energy             new  =   -5283.7087449897 Ry

     CASE: energy            _new < energy            _old

     new trust radius        =       0.0275441406 bohr
     new conv_thr            =       0.0000000010 Ry


ATOMIC_POSITIONS (angstrom)
Ti               8.3423925376       -0.0148553667       15.7775607071
Ti               0.0291331002        8.3621570543       11.5803477355    0   0   0
Ti               2.0905820764        4.2060062134       13.6933193388
Ti               8.3795041056        2.0957563981        9.4724378689    0   0   0
Ti               8.3750099733        6.2687152092        9.4933225157    0   0   0
Ti               4.2170671874        6.2898439467        9.4911460380    0   0   0
Ti               8.3716523222        2.0926938849       13.6495722523
Ti               8.3900295129        6.2645232219       13.6380136846
Ti               4.2046155357        6.2673905620       13.6481096592
Ti               2.0870144801        6.2372213225       15.8090337536
Ti               6.2594342101        6.2376739182       15.7849086926
V                8.3078668217        4.0869260180       15.6832165437
V                4.1485484973        4.0271777298       15.6562054397
V                4.1453105473        4.2119457891       11.5975026988    0   0   0
V                2.1879867013        0.0520231596        9.5054883674    0   0   0
V                2.1522427348        4.1319303501        9.4904675789    0   0   0
V                2.1062317308        8.3546516172       13.6581018630
V                6.3020024520        4.2204460893       13.7367764399
V                4.1899563245        2.1142453718       13.5504107852
V                2.1048639148        6.2714192178       11.5723879270    0   0   0
V                6.3158808164        6.1438819511       11.5700667150    0   0   0
Cr               4.1612212226       -0.0411907000       15.5754647313
Cr               0.1179128009        4.1786640750       11.5195623927    0   0   0
Cr               4.1681598842        8.2577799257       11.6615352591    0   0   0
Cr               6.1999882077        0.1106418811        9.6948923906    0   0   0
Cr               6.2007452456        4.0563627707        9.3394942948    0   0   0
Cr               6.3270307021        8.2748609831       13.5769364800
Cr               4.2149984025        2.0754774019        9.7444374941    0   0   0
Cr               2.0341295187        2.0399645355       15.5899413993
Cr               6.1654443313        1.9787130874       15.5397401643
Cr               2.0054620409        2.1149661174       11.6192682974    0   0   0
Cr               6.3992485267        2.2488278238       11.6549867199    0   0   0
C                8.3671464633        0.0123762133        9.4921945368    0   0   0
C                8.3685510870        4.1683341954        9.4949958325    0   0   0
C                4.2233794382        0.0660683478        9.5137772640    0   0   0
C                4.2071394793        4.1170355077        9.4900603783    0   0   0
C                8.3738156845       -0.0132253350       13.7483624099
C                8.3505157331        4.1630054103       13.7627490980
C                4.2206842200        0.0035299614       13.7103213672
C                4.2103123558        4.1229885252       13.7123711354
C                2.2448466429        0.1373406886       15.8978101654
C                2.1817795572        4.1668320068       15.9255285785
C                6.2813267085        0.1156185830       15.9081199386
C                6.3080907995        4.1490501153       15.8969216125
C                2.1521326937        0.0175132539       11.5903255372    0   0   0
C                2.1078429860        4.1683083653       11.5671868517    0   0   0
C                6.2417937451        0.0188099573       11.6002801854    0   0   0
C                6.3283074126        4.1569384024       11.5682471185    0   0   0
C                8.5457221320        2.1433393590       15.9039890380
C                8.4142916361        6.3046191408       16.0156141533
C                4.2882284903        2.1126954092       15.7605062419
C                4.2349984612        6.4701722268       15.9538284552
C                0.0147673152        2.1438801594       11.5939557114    0   0   0
C                0.0200697416        6.2277703895       11.5821679336    0   0   0
C                4.2182428542        2.0594943016       11.6100232202    0   0   0
C                4.2117703951        6.2583221129       11.5919858628    0   0   0
C                2.1713130363        2.0860319016        9.4919958919    0   0   0
C                2.1164500536        6.2753611976        9.5156635851    0   0   0
C                6.2203151227        2.0809934926        9.4961719556    0   0   0
C                6.2861737462        6.2618311600        9.5257047400    0   0   0
C                2.1199003925        2.0533718841       13.7233431106
C                2.1068783351        6.2886007618       13.7711971997
C                6.2443296192        2.0525232924       13.6819025230
C                6.2970809786        6.2398319795       13.7321460008



     Writing config-only to output data dir ./tmp/hec3_CrTiV_f100_CO_clean.save/ :
     XML data file
     NEW-OLD atomic charge density approx. for the potential

     Check: negative core charge=   -0.000005

     negative rho (up, down):  3.543E-02 0.000E+00

     total cpu time spent up to now is     8504.8 secs

     Self-consistent Calculation

     iteration #  1     ecut=    60.00 Ry     beta= 0.30
     Davidson diagonalization with overlap
     ethr =  1.00E-06,  avg # of iterations =  7.0

     negative rho (up, down):  3.543E-02 0.000E+00

     total cpu time spent up to now is     8515.5 secs

     total energy              =   -5283.70845805 Ry
     estimated scf accuracy    <       0.00312748 Ry

     iteration #  2     ecut=    60.00 Ry     beta= 0.30
     Davidson diagonalization with overlap
     ethr =  5.75E-07,  avg # of iterations =  8.0

     negative rho (up, down):  3.543E-02 0.000E+00

     total cpu time spent up to now is     8526.3 secs

     total energy              =   -5283.70626850 Ry
     estimated scf accuracy    <       0.07634092 Ry

     iteration #  3     ecut=    60.00 Ry     beta= 0.30
     Davidson diagonalization with overlap
     ethr =  5.75E-07,  avg # of iterations =  6.0

     negative rho (up, down):  3.542E-02 0.000E+00

     total cpu time spent up to now is     8535.9 secs

     total energy              =   -5283.70874342 Ry
     estimated scf accuracy    <       0.02388903 Ry

     iteration #  4     ecut=    60.00 Ry     beta= 0.30
     Davidson diagonalization with overlap
     ethr =  5.75E-07,  avg # of iterations =  5.0

     negative rho (up, down):  3.543E-02 0.000E+00

     total cpu time spent up to now is     8544.6 secs

     total energy              =   -5283.70932667 Ry
     estimated scf accuracy    <       0.00384751 Ry

     iteration #  5     ecut=    60.00 Ry     beta= 0.30
     Davidson diagonalization with overlap
     ethr =  5.75E-07,  avg # of iterations =  2.0

     negative rho (up, down):  3.543E-02 0.000E+00

     total cpu time spent up to now is     8552.2 secs

     total energy              =   -5283.70942457 Ry
     estimated scf accuracy    <       0.00232455 Ry

     iteration #  6     ecut=    60.00 Ry     beta= 0.30
     Davidson diagonalization with overlap
     ethr =  4.27E-07,  avg # of iterations =  1.0

     negative rho (up, down):  3.543E-02 0.000E+00

     total cpu time spent up to now is     8558.8 secs

     total energy              =   -5283.70948434 Ry
     estimated scf accuracy    <       0.00116390 Ry

     iteration #  7     ecut=    60.00 Ry     beta= 0.30
     Davidson diagonalization with overlap
     ethr =  2.14E-07,  avg # of iterations =  2.0

     negative rho (up, down):  3.543E-02 0.000E+00

     total cpu time spent up to now is     8565.9 secs

     total energy              =   -5283.70951096 Ry
     estimated scf accuracy    <       0.00067702 Ry

     iteration #  8     ecut=    60.00 Ry     beta= 0.30
     Davidson diagonalization with overlap
     ethr =  1.24E-07,  avg # of iterations =  2.0

     negative rho (up, down):  3.543E-02 0.000E+00

     total cpu time spent up to now is     8573.3 secs

     total energy              =   -5283.70949273 Ry
     estimated scf accuracy    <       0.00274948 Ry

     iteration #  9     ecut=    60.00 Ry     beta= 0.30
     Davidson diagonalization with overlap
     ethr =  1.24E-07,  avg # of iterations =  1.0

     negative rho (up, down):  3.543E-02 0.000E+00

     total cpu time spent up to now is     8579.8 secs

     total energy              =   -5283.70952867 Ry
     estimated scf accuracy    <       0.00097918 Ry

     iteration # 10     ecut=    60.00 Ry     beta= 0.30
     Davidson diagonalization with overlap
     ethr =  1.24E-07,  avg # of iterations =  1.0

     negative rho (up, down):  3.543E-02 0.000E+00

     total cpu time spent up to now is     8586.5 secs

     total energy              =   -5283.70954372 Ry
     estimated scf accuracy    <       0.00017644 Ry

     iteration # 11     ecut=    60.00 Ry     beta= 0.30
     Davidson diagonalization with overlap
     ethr =  3.24E-08,  avg # of iterations =  2.0

     negative rho (up, down):  3.543E-02 0.000E+00

     total cpu time spent up to now is     8593.7 secs

     total energy              =   -5283.70954195 Ry
     estimated scf accuracy    <       0.00037025 Ry

     iteration # 12     ecut=    60.00 Ry     beta= 0.30
     Davidson diagonalization with overlap
     ethr =  3.24E-08,  avg # of iterations =  1.0

     negative rho (up, down):  3.543E-02 0.000E+00

     total cpu time spent up to now is     8600.7 secs

     total energy              =   -5283.70955262 Ry
     estimated scf accuracy    <       0.00005571 Ry

     iteration # 13     ecut=    60.00 Ry     beta= 0.30
     Davidson diagonalization with overlap
     ethr =  1.02E-08,  avg # of iterations =  2.0

     negative rho (up, down):  3.543E-02 0.000E+00

     total cpu time spent up to now is     8607.9 secs

     total energy              =   -5283.70955285 Ry
     estimated scf accuracy    <       0.00010788 Ry

     iteration # 14     ecut=    60.00 Ry     beta= 0.30
     Davidson diagonalization with overlap
     ethr =  1.02E-08,  avg # of iterations =  1.0

     negative rho (up, down):  3.543E-02 0.000E+00

     total cpu time spent up to now is     8614.7 secs

     total energy              =   -5283.70955561 Ry
     estimated scf accuracy    <       0.00001660 Ry

     iteration # 15     ecut=    60.00 Ry     beta= 0.30
     Davidson diagonalization with overlap
     ethr =  3.05E-09,  avg # of iterations =  6.0

     negative rho (up, down):  3.543E-02 0.000E+00

     total cpu time spent up to now is     8623.7 secs

     total energy              =   -5283.70955527 Ry
     estimated scf accuracy    <       0.00005582 Ry

     iteration # 16     ecut=    60.00 Ry     beta= 0.30
     Davidson diagonalization with overlap
     ethr =  3.05E-09,  avg # of iterations =  2.0

     negative rho (up, down):  3.543E-02 0.000E+00

     total cpu time spent up to now is     8631.1 secs

     total energy              =   -5283.70955652 Ry
     estimated scf accuracy    <       0.00001329 Ry

     iteration # 17     ecut=    60.00 Ry     beta= 0.30
     Davidson diagonalization with overlap
     ethr =  2.44E-09,  avg # of iterations =  1.0

     negative rho (up, down):  3.543E-02 0.000E+00

     total cpu time spent up to now is     8637.7 secs

     total energy              =   -5283.70955686 Ry
     estimated scf accuracy    <       0.00000738 Ry

     iteration # 18     ecut=    60.00 Ry     beta= 0.30
     Davidson diagonalization with overlap
     ethr =  1.36E-09,  avg # of iterations =  2.0

     negative rho (up, down):  3.543E-02 0.000E+00

     total cpu time spent up to now is     8644.9 secs

     total energy              =   -5283.70955677 Ry
     estimated scf accuracy    <       0.00001594 Ry

     iteration # 19     ecut=    60.00 Ry     beta= 0.30
     Davidson diagonalization with overlap
     ethr =  1.36E-09,  avg # of iterations =  1.0

     negative rho (up, down):  3.543E-02 0.000E+00

     total cpu time spent up to now is     8651.4 secs

     total energy              =   -5283.70955680 Ry
     estimated scf accuracy    <       0.00002132 Ry

     iteration # 20     ecut=    60.00 Ry     beta= 0.30
     Davidson diagonalization with overlap
     ethr =  1.36E-09,  avg # of iterations =  1.0

     negative rho (up, down):  3.543E-02 0.000E+00

     total cpu time spent up to now is     8658.2 secs

     total energy              =   -5283.70955708 Ry
     estimated scf accuracy    <       0.00000531 Ry

     iteration # 21     ecut=    60.00 Ry     beta= 0.30
     Davidson diagonalization with overlap
     ethr =  9.76E-10,  avg # of iterations =  1.0

     negative rho (up, down):  3.543E-02 0.000E+00

     total cpu time spent up to now is     8664.7 secs

     total energy              =   -5283.70955710 Ry
     estimated scf accuracy    <       0.00000471 Ry

     iteration # 22     ecut=    60.00 Ry     beta= 0.30
     Davidson diagonalization with overlap
     ethr =  8.65E-10,  avg # of iterations =  1.0

     negative rho (up, down):  3.543E-02 0.000E+00

     total cpu time spent up to now is     8671.3 secs

     total energy              =   -5283.70955724 Ry
     estimated scf accuracy    <       0.00000214 Ry

     iteration # 23     ecut=    60.00 Ry     beta= 0.30
     Davidson diagonalization with overlap
     ethr =  3.93E-10,  avg # of iterations =  1.0

     negative rho (up, down):  3.543E-02 0.000E+00

     total cpu time spent up to now is     8680.7 secs

     total energy              =   -5283.70955722 Ry
     estimated scf accuracy    <       0.00000157 Ry

     iteration # 24     ecut=    60.00 Ry     beta= 0.30
     Davidson diagonalization with overlap
     ethr =  2.89E-10,  avg # of iterations =  2.0

     negative rho (up, down):  3.543E-02 0.000E+00

     total cpu time spent up to now is     8688.3 secs

     total energy              =   -5283.70955719 Ry
     estimated scf accuracy    <       0.00000428 Ry

     iteration # 25     ecut=    60.00 Ry     beta= 0.30
     Davidson diagonalization with overlap
     ethr =  2.89E-10,  avg # of iterations =  2.0

     negative rho (up, down):  3.543E-02 0.000E+00

     total cpu time spent up to now is     8695.7 secs

     total energy              =   -5283.70955725 Ry
     estimated scf accuracy    <       0.00000203 Ry

     iteration # 26     ecut=    60.00 Ry     beta= 0.30
     Davidson diagonalization with overlap
     ethr =  2.89E-10,  avg # of iterations =  1.0

     negative rho (up, down):  3.543E-02 0.000E+00

     total cpu time spent up to now is     8702.2 secs

     total energy              =   -5283.70955729 Ry
     estimated scf accuracy    <       0.00000152 Ry

     iteration # 27     ecut=    60.00 Ry     beta= 0.30
     Davidson diagonalization with overlap
     ethr =  2.79E-10,  avg # of iterations =  1.0

     negative rho (up, down):  3.543E-02 0.000E+00

     total cpu time spent up to now is     8708.8 secs

     total energy              =   -5283.70955733 Ry
     estimated scf accuracy    <       0.00000057 Ry

     iteration # 28     ecut=    60.00 Ry     beta= 0.30
     Davidson diagonalization with overlap
     ethr =  1.04E-10,  avg # of iterations =  1.0

     negative rho (up, down):  3.543E-02 0.000E+00

     total cpu time spent up to now is     8715.2 secs

     total energy              =   -5283.70955733 Ry
     estimated scf accuracy    <       0.00000097 Ry

     iteration # 29     ecut=    60.00 Ry     beta= 0.30
     Davidson diagonalization with overlap
     ethr =  1.04E-10,  avg # of iterations =  1.0

     negative rho (up, down):  3.543E-02 0.000E+00

     total cpu time spent up to now is     8721.9 secs

     total energy              =   -5283.70955733 Ry
     estimated scf accuracy    <       0.00000129 Ry

     iteration # 30     ecut=    60.00 Ry     beta= 0.30
     Davidson diagonalization with overlap
     ethr =  1.04E-10,  avg # of iterations =  1.0

     negative rho (up, down):  3.543E-02 0.000E+00

     total cpu time spent up to now is     8728.8 secs

     total energy              =   -5283.70955735 Ry
     estimated scf accuracy    <       0.00000030 Ry

     iteration # 31     ecut=    60.00 Ry     beta= 0.30
     Davidson diagonalization with overlap
     ethr =  5.51E-11,  avg # of iterations =  1.0

     negative rho (up, down):  3.543E-02 0.000E+00

     total cpu time spent up to now is     8735.5 secs

     total energy              =   -5283.70955735 Ry
     estimated scf accuracy    <       0.00000017 Ry

     iteration # 32     ecut=    60.00 Ry     beta= 0.30
     Davidson diagonalization with overlap
     ethr =  3.06E-11,  avg # of iterations =  1.0

     negative rho (up, down):  3.543E-02 0.000E+00

     total cpu time spent up to now is     8742.0 secs

     total energy              =   -5283.70955736 Ry
     estimated scf accuracy    <       0.00000013 Ry

     iteration # 33     ecut=    60.00 Ry     beta= 0.30
     Davidson diagonalization with overlap
     ethr =  2.32E-11,  avg # of iterations =  1.0

     negative rho (up, down):  3.543E-02 0.000E+00

     total cpu time spent up to now is     8748.6 secs

     total energy              =   -5283.70955736 Ry
     estimated scf accuracy    <       0.00000005 Ry

     iteration # 34     ecut=    60.00 Ry     beta= 0.30
     Davidson diagonalization with overlap
     ethr =  9.93E-12,  avg # of iterations =  5.0

     negative rho (up, down):  3.543E-02 0.000E+00

     total cpu time spent up to now is     8756.8 secs

     total energy              =   -5283.70955735 Ry
     estimated scf accuracy    <       0.00000028 Ry

     iteration # 35     ecut=    60.00 Ry     beta= 0.30
     Davidson diagonalization with overlap
     ethr =  9.93E-12,  avg # of iterations =  2.0

     negative rho (up, down):  3.543E-02 0.000E+00

     total cpu time spent up to now is     8763.8 secs

     total energy              =   -5283.70955736 Ry
     estimated scf accuracy    <       0.00000012 Ry

     iteration # 36     ecut=    60.00 Ry     beta= 0.30
     Davidson diagonalization with overlap
     ethr =  9.93E-12,  avg # of iterations =  2.0

     negative rho (up, down):  3.543E-02 0.000E+00

     total cpu time spent up to now is     8771.1 secs

     total energy              =   -5283.70955736 Ry
     estimated scf accuracy    <       0.00000009 Ry

     iteration # 37     ecut=    60.00 Ry     beta= 0.30
     Davidson diagonalization with overlap
     ethr =  9.93E-12,  avg # of iterations =  2.0

     negative rho (up, down):  3.543E-02 0.000E+00

     total cpu time spent up to now is     8778.5 secs

     total energy              =   -5283.70955736 Ry
     estimated scf accuracy    <       0.00000006 Ry

     iteration # 38     ecut=    60.00 Ry     beta= 0.30
     Davidson diagonalization with overlap
     ethr =  9.93E-12,  avg # of iterations =  2.0

     negative rho (up, down):  3.543E-02 0.000E+00

     total cpu time spent up to now is     8785.2 secs

     total energy              =   -5283.70955736 Ry
     estimated scf accuracy    <       0.00000011 Ry

     iteration # 39     ecut=    60.00 Ry     beta= 0.30
     Davidson diagonalization with overlap
     ethr =  9.93E-12,  avg # of iterations =  1.0

     negative rho (up, down):  3.543E-02 0.000E+00

     total cpu time spent up to now is     8791.9 secs

     total energy              =   -5283.70955736 Ry
     estimated scf accuracy    <       0.00000019 Ry

     iteration # 40     ecut=    60.00 Ry     beta= 0.30
     Davidson diagonalization with overlap
     ethr =  9.93E-12,  avg # of iterations =  1.0

     negative rho (up, down):  3.543E-02 0.000E+00

     total cpu time spent up to now is     8798.7 secs

     total energy              =   -5283.70955736 Ry
     estimated scf accuracy    <       0.00000005 Ry

     iteration # 41     ecut=    60.00 Ry     beta= 0.30
     Davidson diagonalization with overlap
     ethr =  8.49E-12,  avg # of iterations =  1.0

     negative rho (up, down):  3.543E-02 0.000E+00

     total cpu time spent up to now is     8805.3 secs

     total energy              =   -5283.70955736 Ry
     estimated scf accuracy    <       0.00000002 Ry

     iteration # 42     ecut=    60.00 Ry     beta= 0.30
     Davidson diagonalization with overlap
     ethr =  2.89E-12,  avg # of iterations =  1.0

     negative rho (up, down):  3.543E-02 0.000E+00

     total cpu time spent up to now is     8811.6 secs

     total energy              =   -5283.70955736 Ry
     estimated scf accuracy    <       0.00000002 Ry

     iteration # 43     ecut=    60.00 Ry     beta= 0.30
     Davidson diagonalization with overlap
     ethr =  2.89E-12,  avg # of iterations =  1.0

     negative rho (up, down):  3.543E-02 0.000E+00

     total cpu time spent up to now is     8818.3 secs

     total energy              =   -5283.70955736 Ry
     estimated scf accuracy    <          4.1E-09 Ry

     iteration # 44     ecut=    60.00 Ry     beta= 0.30
     Davidson diagonalization with overlap
     ethr =  7.46E-13,  avg # of iterations =  2.0

     negative rho (up, down):  3.543E-02 0.000E+00

     total cpu time spent up to now is     8825.7 secs

     total energy              =   -5283.70955736 Ry
     estimated scf accuracy    <          8.8E-09 Ry

     iteration # 45     ecut=    60.00 Ry     beta= 0.30
     Davidson diagonalization with overlap
     ethr =  7.46E-13,  avg # of iterations =  2.0

     negative rho (up, down):  3.543E-02 0.000E+00

     total cpu time spent up to now is     8833.0 secs

     total energy              =   -5283.70955736 Ry
     estimated scf accuracy    <          6.1E-09 Ry

     iteration # 46     ecut=    60.00 Ry     beta= 0.30
     Davidson diagonalization with overlap
     ethr =  7.46E-13,  avg # of iterations =  1.0

     negative rho (up, down):  3.543E-02 0.000E+00

     total cpu time spent up to now is     8839.5 secs

     total energy              =   -5283.70955736 Ry
     estimated scf accuracy    <          6.1E-09 Ry

     iteration # 47     ecut=    60.00 Ry     beta= 0.30
     Davidson diagonalization with overlap
     ethr =  7.46E-13,  avg # of iterations =  2.0

     negative rho (up, down):  3.543E-02 0.000E+00

     total cpu time spent up to now is     8846.5 secs

     total energy              =   -5283.70955736 Ry
     estimated scf accuracy    <          5.5E-09 Ry

     iteration # 48     ecut=    60.00 Ry     beta= 0.30
     Davidson diagonalization with overlap
     ethr =  7.46E-13,  avg # of iterations =  2.0

     negative rho (up, down):  3.543E-02 0.000E+00

     total cpu time spent up to now is     8854.1 secs

     total energy              =   -5283.70955736 Ry
     estimated scf accuracy    <          7.6E-09 Ry

     iteration # 49     ecut=    60.00 Ry     beta= 0.30
     Davidson diagonalization with overlap
     ethr =  7.46E-13,  avg # of iterations =  1.0

     negative rho (up, down):  3.543E-02 0.000E+00

     total cpu time spent up to now is     8860.7 secs

     total energy              =   -5283.70955736 Ry
     estimated scf accuracy    <       0.00000001 Ry

     iteration # 50     ecut=    60.00 Ry     beta= 0.30
     Davidson diagonalization with overlap
     ethr =  7.46E-13,  avg # of iterations =  1.0

     negative rho (up, down):  3.543E-02 0.000E+00

     total cpu time spent up to now is     8867.3 secs

     total energy              =   -5283.70955736 Ry
     estimated scf accuracy    <          3.2E-09 Ry

     iteration # 51     ecut=    60.00 Ry     beta= 0.30
     Davidson diagonalization with overlap
     ethr =  5.93E-13,  avg # of iterations =  1.0

     negative rho (up, down):  3.543E-02 0.000E+00

     total cpu time spent up to now is     8873.9 secs

     total energy              =   -5283.70955736 Ry
     estimated scf accuracy    <          1.9E-09 Ry

     iteration # 52     ecut=    60.00 Ry     beta= 0.30
     Davidson diagonalization with overlap
     ethr =  3.51E-13,  avg # of iterations =  2.0

     negative rho (up, down):  3.543E-02 0.000E+00

     total cpu time spent up to now is     8881.1 secs

     total energy              =   -5283.70955736 Ry
     estimated scf accuracy    <          2.8E-09 Ry

     iteration # 53     ecut=    60.00 Ry     beta= 0.30
     Davidson diagonalization with overlap
     ethr =  3.51E-13,  avg # of iterations =  1.0

     negative rho (up, down):  3.543E-02 0.000E+00

     total cpu time spent up to now is     8887.6 secs

     total energy              =   -5283.70955737 Ry
     estimated scf accuracy    <          1.1E-09 Ry

     iteration # 54     ecut=    60.00 Ry     beta= 0.30
     Davidson diagonalization with overlap
     ethr =  1.93E-13,  avg # of iterations =  1.0

     negative rho (up, down):  3.543E-02 0.000E+00

     total cpu time spent up to now is     8894.1 secs

     End of self-consistent calculation

          k = 0.0000 0.0000 0.0000 ( 46961 PWs)   bands (ev):

   -69.6366 -69.5957 -69.5725 -69.5541 -69.5534 -69.5531 -69.5384 -69.5315
   -69.5163 -69.4858 -69.3081 -62.1441 -62.1228 -62.1207 -62.0749 -62.0685
   -61.9972 -61.9907 -61.9834 -61.8366 -61.7893 -54.3916 -54.3611 -54.2636
   -54.1101 -54.0995 -54.0791 -54.0574 -54.0449 -54.0246 -54.0005 -53.9353
   -41.0493 -41.0367 -41.0347 -41.0280 -41.0156 -41.0063 -40.9968 -40.9730
   -40.9647 -40.9625 -40.9486 -40.9445 -40.9349 -40.9298 -40.9286 -40.9077
   -40.8941 -40.8879 -40.8867 -40.8693 -40.8682 -40.8606 -40.8567 -40.8556
   -40.8437 -40.8303 -40.8234 -40.8155 -40.7996 -40.7872 -40.7544 -40.6623
   -40.5266 -36.1065 -36.0780 -36.0544 -36.0505 -36.0405 -36.0331 -36.0203
   -35.9831 -35.9751 -35.9696 -35.9541 -35.9484 -35.9374 -35.9176 -35.9163
   -35.9079 -35.8964 -35.8832 -35.8674 -35.8462 -35.8431 -35.8337 -35.7772
   -35.7669 -35.7463 -35.7093 -35.6796 -35.6602 -35.6354 -35.6076 -30.8265
   -30.7741 -30.6854 -30.6611 -30.6336 -30.6193 -30.6166 -30.6096 -30.5758
   -30.5496 -30.5276 -30.5253 -30.5126 -30.4853 -30.4779 -30.4690 -30.4661
   -30.4589 -30.4277 -30.4113 -30.3992 -30.3813 -30.3432 -30.3352 -30.3138
   -30.3043 -30.2921 -30.2641 -30.2524 -30.2224 -30.1871 -30.1817 -30.1454
   -10.7964  -9.7538  -9.3174  -9.2555  -9.1366  -9.0270  -8.6580  -8.4545
    -8.3980  -8.3785  -8.3346  -8.2310  -8.2086  -8.1076  -8.0501  -7.8639
    -7.7932  -7.7650  -7.6455  -7.5902  -7.5469  -7.5291  -7.4702  -7.4458
    -7.3991  -7.3714  -7.2154  -7.1376  -6.9797  -6.9349  -6.7654  -6.4944
    -4.0451  -3.9801  -3.9312  -3.8036  -3.0748  -2.9364  -2.7783  -2.7314
    -2.7087  -2.6545  -2.6317  -2.5537  -2.4994  -2.4401  -2.4294  -2.3025
    -2.1423  -2.1274  -2.0583  -1.9110  -1.8956  -1.8686  -1.8266  -1.7644
    -1.6807  -1.6024  -1.5514  -1.5065  -1.4756  -1.4648  -1.4263  -1.4159
    -1.4140  -1.4032  -1.3969  -1.3513  -1.3436  -1.3222  -1.3003  -1.2529
    -1.2115  -1.1643  -1.1487  -1.0967  -1.0443  -1.0214  -0.9899  -0.9565
    -0.9443  -0.8983  -0.8658  -0.8368  -0.7942  -0.7567  -0.7365  -0.7248
    -0.6937  -0.6766  -0.6573  -0.6328  -0.6246  -0.5125  -0.4836  -0.3994
    -0.3636  -0.3281  -0.2694  -0.2462  -0.2028  -0.1546  -0.1128  -0.0989
    -0.0717  -0.0164   0.0176   0.0308   0.0750   0.2035   0.2985   0.3535
     0.3821   0.4821   0.5709   0.6407   0.6516   0.7203   0.7781   0.9040
     0.9542   0.9789   1.0714   1.1678   1.2358   1.2758   1.3396   1.3533
     1.4713   1.5781   1.6474   1.7092   1.7320   1.8681   1.9194   2.0927
     2.1552   2.5786   2.6183   2.6770   2.7557   2.8212   2.8457   2.8883
     2.9643   3.0370   3.0442   3.0633   3.0873   3.1650   3.1666   3.2013
     3.2402   3.2501   3.2886   3.3148   3.3371   3.3555   3.3640   3.4162
     3.4413   3.4473   3.5200   3.5311   3.5448   3.5792   3.5996   3.6402
     3.6966   3.7699   3.8027   3.8447   3.8739   3.8886   3.9283   3.9656
     3.9834   4.0268   4.0475   4.0685   4.1000   4.1315   4.1850   4.1960
     4.2182   4.2529   4.2774   4.3710   4.4031   4.4682   4.4787   4.5174
     4.5342   4.5764   4.5914   4.6174   4.7012   4.7237

     the Fermi energy is     2.9326 ev

!    total energy              =   -5283.70955736 Ry
     estimated scf accuracy    <          6.2E-10 Ry
     smearing contrib. (-TS)   =      -0.03585878 Ry
     internal energy E=F+TS    =   -5283.67369859 Ry

     The total energy is F=E-TS. E is the sum of the following terms:
     one-electron contribution =  -55966.69562961 Ry
     hartree contribution      =   28007.19995423 Ry
     xc contribution           =    -787.69110745 Ry
     ewald contribution        =   23661.11750592 Ry
     one-center paw contrib.   =    -197.60442168 Ry

     convergence has been achieved in  54 iterations

     negative rho (up, down):  3.543E-02 0.000E+00

     Forces acting on atoms (cartesian axes, Ry/au):

     atom    1 type  1   force =     0.00079961   -0.00039570   -0.00143718
     atom    2 type  1   force =    -0.00720365   -0.00566657    0.00352826
     atom    3 type  1   force =     0.00020427    0.00080131   -0.00079530
     atom    4 type  1   force =     0.00073866   -0.01637827    0.03048527
     atom    5 type  1   force =    -0.00454661    0.01300882    0.00150415
     atom    6 type  1   force =     0.00917213   -0.00227979    0.02751026
     atom    7 type  1   force =    -0.00028078    0.00006143    0.00077807
     atom    8 type  1   force =     0.00001986    0.00058424    0.00124333
     atom    9 type  1   force =    -0.00029126   -0.00076917    0.00190541
     atom   10 type  1   force =     0.00275927   -0.00207780   -0.00404948
     atom   11 type  1   force =    -0.00225947    0.00097612   -0.00137017
     atom   12 type  2   force =    -0.00031865    0.00259061   -0.00095830
     atom   13 type  2   force =     0.00334070    0.00272861    0.00150280
     atom   14 type  2   force =     0.02151659   -0.00447351    0.00765608
     atom   15 type  2   force =    -0.01054168    0.00244226    0.11337432
     atom   16 type  2   force =     0.00701205   -0.00124480    0.09512524
     atom   17 type  2   force =    -0.00104582    0.00041503   -0.00166872
     atom   18 type  2   force =    -0.00061364    0.00169001   -0.00112634
     atom   19 type  2   force =     0.00044574    0.00100858    0.00182284
     atom   20 type  2   force =     0.00381837   -0.00895233   -0.01112952
     atom   21 type  2   force =     0.00265433    0.02066413   -0.01272461
     atom   22 type  3   force =    -0.00299335   -0.00137847   -0.00137739
     atom   23 type  3   force =    -0.02218385   -0.01260387    0.00528449
     atom   24 type  3   force =     0.02655087    0.02165015   -0.01908038
     atom   25 type  3   force =     0.01429807   -0.01430415    0.06756525
     atom   26 type  3   force =    -0.00435731    0.01097747    0.12503798
     atom   27 type  3   force =     0.00001467   -0.00031456   -0.00290631
     atom   28 type  3   force =    -0.00998274   -0.00058872    0.03054917
     atom   29 type  3   force =     0.00468534    0.00060350    0.00019744
     atom   30 type  3   force =     0.00052226   -0.00273006    0.00149605
     atom   31 type  3   force =     0.00945327   -0.00206116   -0.01994403
     atom   32 type  3   force =    -0.01161303   -0.00420747   -0.00999663
     atom   33 type  4   force =     0.00237462   -0.00749597   -0.03432152
     atom   34 type  4   force =     0.00963444    0.01255605   -0.00375745
     atom   35 type  4   force =    -0.00260102   -0.01697814   -0.01949581
     atom   36 type  4   force =     0.00148669    0.01093420   -0.03405147
     atom   37 type  4   force =     0.00050652    0.00114277    0.00313392
     atom   38 type  4   force =    -0.00015828   -0.00021221    0.00058902
     atom   39 type  4   force =    -0.00090409    0.00038745    0.00091773
     atom   40 type  4   force =    -0.00016717   -0.00082817    0.00095942
     atom   41 type  4   force =    -0.00156986   -0.00056733   -0.00238675
     atom   42 type  4   force =     0.00144884    0.00029591    0.00115589
     atom   43 type  4   force =    -0.00014842    0.00163641    0.00141289
     atom   44 type  4   force =     0.00115485    0.00015264    0.00136182
     atom   45 type  4   force =     0.00469877    0.00592609   -0.03680724
     atom   46 type  4   force =     0.00075925    0.00218514   -0.04333015
     atom   47 type  4   force =    -0.00938940   -0.00267731   -0.02052964
     atom   48 type  4   force =    -0.01433169   -0.00763780   -0.02366757
     atom   49 type  4   force =     0.00077351    0.00101499    0.00270507
     atom   50 type  4   force =    -0.00131673   -0.00026486    0.00102606
     atom   51 type  4   force =    -0.00290859   -0.00180434    0.00127552
     atom   52 type  4   force =    -0.00066182   -0.00145585    0.00041197
     atom   53 type  4   force =    -0.00189151   -0.00570925   -0.03173736
     atom   54 type  4   force =    -0.00532638    0.00758185   -0.03176953
     atom   55 type  4   force =    -0.00053809    0.00413066   -0.03578166
     atom   56 type  4   force =    -0.00151081   -0.00843500   -0.02770492
     atom   57 type  4   force =    -0.01686479    0.00842510   -0.02435325
     atom   58 type  4   force =    -0.00941864   -0.00667733   -0.03069673
     atom   59 type  4   force =     0.01455627    0.01416034   -0.03027379
     atom   60 type  4   force =     0.00218808   -0.01024574   -0.01896764
     atom   61 type  4   force =    -0.00019098    0.00097501    0.00290017
     atom   62 type  4   force =     0.00017406   -0.00039488   -0.00124650
     atom   63 type  4   force =     0.00080694   -0.00014774    0.00391053
     atom   64 type  4   force =    -0.00043878    0.00025147    0.00111686

     Total force =     0.015306     Total SCF correction =     0.000066
     Energy error            =      8.1E-04 Ry
     Gradient error          =      4.7E-03 Ry/Bohr

     number of scf cycles    =  21
     number of bfgs steps    =  20

     energy             old  =   -5283.7087449897 Ry
     energy             new  =   -5283.7095573637 Ry

     CASE: energy            _new < energy            _old

     new trust radius        =       0.0158488513 bohr
     new conv_thr            =       0.0000000010 Ry


ATOMIC_POSITIONS (angstrom)
Ti               8.3448911578       -0.0125386712       15.7739842486
Ti               0.0291331002        8.3621570543       11.5803477355    0   0   0
Ti               2.0909641403        4.2075522363       13.6929258589
Ti               8.3795041056        2.0957563981        9.4724378689    0   0   0
Ti               8.3750099733        6.2687152092        9.4933225157    0   0   0
Ti               4.2170671874        6.2898439467        9.4911460380    0   0   0
Ti               8.3714105883        2.0940688533       13.6515777332
Ti               8.3901133083        6.2635672100       13.6381596243
Ti               4.2040640736        6.2664259782       13.6486028208
Ti               2.0874008352        6.2354614489       15.8043042143
Ti               6.2594829268        6.2393363420       15.7839716944
V                8.3092287426        4.0917189991       15.6809237670
V                4.1519186163        4.0278512874       15.6579962265
V                4.1453105473        4.2119457891       11.5975026988    0   0   0
V                2.1879867013        0.0520231596        9.5054883674    0   0   0
V                2.1522427348        4.1319303501        9.4904675789    0   0   0
V                2.1039701996        8.3547536005       13.6562322166
V                6.3002690053        4.2223966029       13.7379915047
V                4.1907381398        2.1164406402       13.5525428401
V                2.1048639148        6.2714192178       11.5723879270    0   0   0
V                6.3158808164        6.1438819511       11.5700667150    0   0   0
Cr               4.1539019262       -0.0424120782       15.5715563552
Cr               0.1179128009        4.1786640750       11.5195623927    0   0   0
Cr               4.1681598842        8.2577799257       11.6615352591    0   0   0
Cr               6.1999882077        0.1106418811        9.6948923906    0   0   0
Cr               6.2007452456        4.0563627707        9.3394942948    0   0   0
Cr               6.3291320665        8.2731940400       13.5729024028
Cr               4.2149984025        2.0754774019        9.7444374941    0   0   0
Cr               2.0393376201        2.0438865309       15.5905443089
Cr               6.1665270979        1.9774158532       15.5410626610
Cr               2.0054620409        2.1149661174       11.6192682974    0   0   0
Cr               6.3992485267        2.2488278238       11.6549867199    0   0   0
C                8.3671464633        0.0123762133        9.4921945368    0   0   0
C                8.3685510870        4.1683341954        9.4949958325    0   0   0
C                4.2233794382        0.0660683478        9.5137772640    0   0   0
C                4.2071394793        4.1170355077        9.4900603783    0   0   0
C                8.3747689061       -0.0120604876       13.7501679392
C                8.3496251641        4.1630634540       13.7619668346
C                4.2195070183        0.0043632621       13.7080841665
C                4.2098592188        4.1233443245       13.7138899299
C                2.2445238414        0.1341388615       15.8967167862
C                2.1862265794        4.1671518976       15.9279744619
C                6.2776922484        0.1175784197       15.9112222924
C                6.3078645299        4.1499346682       15.8986647591
C                2.1521326937        0.0175132539       11.5903255372    0   0   0
C                2.1078429860        4.1683083653       11.5671868517    0   0   0
C                6.2417937451        0.0188099573       11.6002801854    0   0   0
C                6.3283074126        4.1569384024       11.5682471185    0   0   0
C                8.5490184440        2.1438431633       15.9094174440
C                8.4132200115        6.2996563691       16.0166790352
C                4.2843588103        2.1096202946       15.7643198280
C                4.2336190149        6.4646464065       15.9542435577
C                0.0147673152        2.1438801594       11.5939557114    0   0   0
C                0.0200697416        6.2277703895       11.5821679336    0   0   0
C                4.2182428542        2.0594943016       11.6100232202    0   0   0
C                4.2117703951        6.2583221129       11.5919858628    0   0   0
C                2.1713130363        2.0860319016        9.4919958919    0   0   0
C                2.1164500536        6.2753611976        9.5156635851    0   0   0
C                6.2203151227        2.0809934926        9.4961719556    0   0   0
C                6.2861737462        6.2618311600        9.5257047400    0   0   0
C                2.1194688937        2.0559089853       13.7273248137
C                2.1064120808        6.2887995052       13.7670177649
C                6.2450405172        2.0530352873       13.6859221212
C                6.2970520305        6.2406304129       13.7316682325



     Writing config-only to output data dir ./tmp/hec3_CrTiV_f100_CO_clean.save/ :
     XML data file
     NEW-OLD atomic charge density approx. for the potential

     Check: negative core charge=   -0.000005

     negative rho (up, down):  3.514E-02 0.000E+00

     total cpu time spent up to now is     8904.4 secs

     Self-consistent Calculation

     iteration #  1     ecut=    60.00 Ry     beta= 0.30
     Davidson diagonalization with overlap
     ethr =  1.00E-06,  avg # of iterations =  5.0

     negative rho (up, down):  3.514E-02 0.000E+00

     total cpu time spent up to now is     8913.6 secs

     total energy              =   -5283.70876157 Ry
     estimated scf accuracy    <       0.00264835 Ry

     iteration #  2     ecut=    60.00 Ry     beta= 0.30
     Davidson diagonalization with overlap
     c_bands:  1 eigenvalues not converged
     ethr =  4.87E-07,  avg # of iterations = 20.0

     negative rho (up, down):  3.515E-02 0.000E+00

     total cpu time spent up to now is     8929.8 secs

     total energy              =   -5283.70164666 Ry
     estimated scf accuracy    <       0.46052903 Ry

     iteration #  3     ecut=    60.00 Ry     beta= 0.30
     Davidson diagonalization with overlap
     c_bands:  1 eigenvalues not converged
     ethr =  4.87E-07,  avg # of iterations = 20.0

     negative rho (up, down):  3.515E-02 0.000E+00

     total cpu time spent up to now is     8946.5 secs

     total energy              =   -5283.70863916 Ry
     estimated scf accuracy    <       0.04956627 Ry

     iteration #  4     ecut=    60.00 Ry     beta= 0.30
     Davidson diagonalization with overlap
     ethr =  4.87E-07,  avg # of iterations =  6.0

     negative rho (up, down):  3.514E-02 0.000E+00

     total cpu time spent up to now is     8955.4 secs

     total energy              =   -5283.70953079 Ry
     estimated scf accuracy    <       0.00857222 Ry

     iteration #  5     ecut=    60.00 Ry     beta= 0.30
     Davidson diagonalization with overlap
     ethr =  4.87E-07,  avg # of iterations =  2.0

     negative rho (up, down):  3.514E-02 0.000E+00

     total cpu time spent up to now is     8962.3 secs

     total energy              =   -5283.70973335 Ry
     estimated scf accuracy    <       0.00250852 Ry

     iteration #  6     ecut=    60.00 Ry     beta= 0.30
     Davidson diagonalization with overlap
     ethr =  4.61E-07,  avg # of iterations =  2.0

     negative rho (up, down):  3.514E-02 0.000E+00

     total cpu time spent up to now is     8969.5 secs

     total energy              =   -5283.70981181 Ry
     estimated scf accuracy    <       0.00068910 Ry

     iteration #  7     ecut=    60.00 Ry     beta= 0.30
     Davidson diagonalization with overlap
     ethr =  1.27E-07,  avg # of iterations =  2.0

     negative rho (up, down):  3.514E-02 0.000E+00

     total cpu time spent up to now is     8976.7 secs

     total energy              =   -5283.70984256 Ry
     estimated scf accuracy    <       0.00034220 Ry

     iteration #  8     ecut=    60.00 Ry     beta= 0.30
     Davidson diagonalization with overlap
     ethr =  6.29E-08,  avg # of iterations =  2.0

     negative rho (up, down):  3.514E-02 0.000E+00

     total cpu time spent up to now is     8984.0 secs

     total energy              =   -5283.70984711 Ry
     estimated scf accuracy    <       0.00031121 Ry

     iteration #  9     ecut=    60.00 Ry     beta= 0.30
     Davidson diagonalization with overlap
     ethr =  5.72E-08,  avg # of iterations =  2.0

     negative rho (up, down):  3.514E-02 0.000E+00

     total cpu time spent up to now is     8991.2 secs

     total energy              =   -5283.70985699 Ry
     estimated scf accuracy    <       0.00015703 Ry

     iteration # 10     ecut=    60.00 Ry     beta= 0.30
     Davidson diagonalization with overlap
     ethr =  2.89E-08,  avg # of iterations =  2.0

     negative rho (up, down):  3.514E-02 0.000E+00

     total cpu time spent up to now is     8998.6 secs

     total energy              =   -5283.70986040 Ry
     estimated scf accuracy    <       0.00005979 Ry

     iteration # 11     ecut=    60.00 Ry     beta= 0.30
     Davidson diagonalization with overlap
     ethr =  1.10E-08,  avg # of iterations =  5.0

     negative rho (up, down):  3.514E-02 0.000E+00

     total cpu time spent up to now is     9007.7 secs

     total energy              =   -5283.70985875 Ry
     estimated scf accuracy    <       0.00016443 Ry

     iteration # 12     ecut=    60.00 Ry     beta= 0.30
     Davidson diagonalization with overlap
     ethr =  1.10E-08,  avg # of iterations =  2.0

     negative rho (up, down):  3.514E-02 0.000E+00

     total cpu time spent up to now is     9014.9 secs

     total energy              =   -5283.70985983 Ry
     estimated scf accuracy    <       0.00007811 Ry

     iteration # 13     ecut=    60.00 Ry     beta= 0.30
     Davidson diagonalization with overlap
     ethr =  1.10E-08,  avg # of iterations =  5.0

     negative rho (up, down):  3.514E-02 0.000E+00

     total cpu time spent up to now is     9023.4 secs

     total energy              =   -5283.70984437 Ry
     estimated scf accuracy    <       0.00133957 Ry

     iteration # 14     ecut=    60.00 Ry     beta= 0.30
     Davidson diagonalization with overlap
     ethr =  1.10E-08,  avg # of iterations =  5.0

     negative rho (up, down):  3.514E-02 0.000E+00

     total cpu time spent up to now is     9032.2 secs

     total energy              =   -5283.70986060 Ry
     estimated scf accuracy    <       0.00019919 Ry

     iteration # 15     ecut=    60.00 Ry     beta= 0.30
     Davidson diagonalization with overlap
     ethr =  1.10E-08,  avg # of iterations =  1.0

     negative rho (up, down):  3.514E-02 0.000E+00

     total cpu time spent up to now is     9039.1 secs

     total energy              =   -5283.70986466 Ry
     estimated scf accuracy    <       0.00001813 Ry

     iteration # 16     ecut=    60.00 Ry     beta= 0.30
     Davidson diagonalization with overlap
     ethr =  3.33E-09,  avg # of iterations =  5.0

     negative rho (up, down):  3.514E-02 0.000E+00

     total cpu time spent up to now is     9047.7 secs

     total energy              =   -5283.70986483 Ry
     estimated scf accuracy    <       0.00003986 Ry

     iteration # 17     ecut=    60.00 Ry     beta= 0.30
     Davidson diagonalization with overlap
     ethr =  3.33E-09,  avg # of iterations =  1.0

     negative rho (up, down):  3.514E-02 0.000E+00

     total cpu time spent up to now is     9054.5 secs

     total energy              =   -5283.70986583 Ry
     estimated scf accuracy    <       0.00000458 Ry

     iteration # 18     ecut=    60.00 Ry     beta= 0.30
     Davidson diagonalization with overlap
     ethr =  8.42E-10,  avg # of iterations =  4.0

     negative rho (up, down):  3.514E-02 0.000E+00

     total cpu time spent up to now is     9062.6 secs

     total energy              =   -5283.70986610 Ry
     estimated scf accuracy    <       0.00000214 Ry

     iteration # 19     ecut=    60.00 Ry     beta= 0.30
     Davidson diagonalization with overlap
     ethr =  3.93E-10,  avg # of iterations =  5.0

     negative rho (up, down):  3.514E-02 0.000E+00

     total cpu time spent up to now is     9071.0 secs

     total energy              =   -5283.70986608 Ry
     estimated scf accuracy    <       0.00000272 Ry

     iteration # 20     ecut=    60.00 Ry     beta= 0.30
     Davidson diagonalization with overlap
     ethr =  3.93E-10,  avg # of iterations =  2.0

     negative rho (up, down):  3.514E-02 0.000E+00

     total cpu time spent up to now is     9078.3 secs

     total energy              =   -5283.70986617 Ry
     estimated scf accuracy    <       0.00000104 Ry

     iteration # 21     ecut=    60.00 Ry     beta= 0.30
     Davidson diagonalization with overlap
     ethr =  1.90E-10,  avg # of iterations =  5.0

     negative rho (up, down):  3.514E-02 0.000E+00

     total cpu time spent up to now is     9087.7 secs

     total energy              =   -5283.70986613 Ry
     estimated scf accuracy    <       0.00000369 Ry

     iteration # 22     ecut=    60.00 Ry     beta= 0.30
     Davidson diagonalization with overlap
     ethr =  1.90E-10,  avg # of iterations =  2.0

     negative rho (up, down):  3.514E-02 0.000E+00

     total cpu time spent up to now is     9095.2 secs

     total energy              =   -5283.70986623 Ry
     estimated scf accuracy    <       0.00000056 Ry

     iteration # 23     ecut=    60.00 Ry     beta= 0.30
     Davidson diagonalization with overlap
     ethr =  1.02E-10,  avg # of iterations =  2.0

     negative rho (up, down):  3.514E-02 0.000E+00

     total cpu time spent up to now is     9102.5 secs

     total energy              =   -5283.70986617 Ry
     estimated scf accuracy    <       0.00000358 Ry

     iteration # 24     ecut=    60.00 Ry     beta= 0.30
     Davidson diagonalization with overlap
     ethr =  1.02E-10,  avg # of iterations =  3.0

     negative rho (up, down):  3.514E-02 0.000E+00

     total cpu time spent up to now is     9110.6 secs

     total energy              =   -5283.70986616 Ry
     estimated scf accuracy    <       0.00000559 Ry

     iteration # 25     ecut=    60.00 Ry     beta= 0.30
     Davidson diagonalization with overlap
     ethr =  1.02E-10,  avg # of iterations =  2.0

     negative rho (up, down):  3.514E-02 0.000E+00

     total cpu time spent up to now is     9117.8 secs

     total energy              =   -5283.70986624 Ry
     estimated scf accuracy    <       0.00000034 Ry

     iteration # 26     ecut=    60.00 Ry     beta= 0.30
     Davidson diagonalization with overlap
     ethr =  6.30E-11,  avg # of iterations =  4.0

     negative rho (up, down):  3.514E-02 0.000E+00

     total cpu time spent up to now is     9126.2 secs

     total energy              =   -5283.70986621 Ry
     estimated scf accuracy    <       0.00000122 Ry

     iteration # 27     ecut=    60.00 Ry     beta= 0.30
     Davidson diagonalization with overlap
     ethr =  6.30E-11,  avg # of iterations =  5.0

     negative rho (up, down):  3.514E-02 0.000E+00

     total cpu time spent up to now is     9135.7 secs

     total energy              =   -5283.70986621 Ry
     estimated scf accuracy    <       0.00000274 Ry

     iteration # 28     ecut=    60.00 Ry     beta= 0.30
     Davidson diagonalization with overlap
     ethr =  6.30E-11,  avg # of iterations =  2.0

     negative rho (up, down):  3.514E-02 0.000E+00

     total cpu time spent up to now is     9143.1 secs

     total energy              =   -5283.70986626 Ry
     estimated scf accuracy    <       0.00000016 Ry

     iteration # 29     ecut=    60.00 Ry     beta= 0.30
     Davidson diagonalization with overlap
     ethr =  2.96E-11,  avg # of iterations =  2.0

     negative rho (up, down):  3.514E-02 0.000E+00

     total cpu time spent up to now is     9150.6 secs

     total energy              =   -5283.70986626 Ry
     estimated scf accuracy    <       0.00000008 Ry

     iteration # 30     ecut=    60.00 Ry     beta= 0.30
     Davidson diagonalization with overlap
     ethr =  1.53E-11,  avg # of iterations =  5.0

     negative rho (up, down):  3.514E-02 0.000E+00

     total cpu time spent up to now is     9159.3 secs

     total energy              =   -5283.70986627 Ry
     estimated scf accuracy    <       0.00000023 Ry

     iteration # 31     ecut=    60.00 Ry     beta= 0.30
     Davidson diagonalization with overlap
     ethr =  1.53E-11,  avg # of iterations =  2.0

     negative rho (up, down):  3.514E-02 0.000E+00

     total cpu time spent up to now is     9166.7 secs

     total energy              =   -5283.70986627 Ry
     estimated scf accuracy    <       0.00000004 Ry

     iteration # 32     ecut=    60.00 Ry     beta= 0.30
     Davidson diagonalization with overlap
     ethr =  7.98E-12,  avg # of iterations =  2.0

     negative rho (up, down):  3.514E-02 0.000E+00

     total cpu time spent up to now is     9174.2 secs

     total energy              =   -5283.70986628 Ry
     estimated scf accuracy    <       0.00000004 Ry

     iteration # 33     ecut=    60.00 Ry     beta= 0.30
     Davidson diagonalization with overlap
     ethr =  7.56E-12,  avg # of iterations =  2.0

     negative rho (up, down):  3.514E-02 0.000E+00

     total cpu time spent up to now is     9181.3 secs

     total energy              =   -5283.70986627 Ry
     estimated scf accuracy    <       0.00000003 Ry

     iteration # 34     ecut=    60.00 Ry     beta= 0.30
     Davidson diagonalization with overlap
     ethr =  5.76E-12,  avg # of iterations =  2.0

     negative rho (up, down):  3.514E-02 0.000E+00

     total cpu time spent up to now is     9188.5 secs

     total energy              =   -5283.70986627 Ry
     estimated scf accuracy    <       0.00000029 Ry

     iteration # 35     ecut=    60.00 Ry     beta= 0.30
     Davidson diagonalization with overlap
     ethr =  5.76E-12,  avg # of iterations =  1.0

     negative rho (up, down):  3.514E-02 0.000E+00

     total cpu time spent up to now is     9195.1 secs

     total energy              =   -5283.70986628 Ry
     estimated scf accuracy    <          4.3E-09 Ry

     iteration # 36     ecut=    60.00 Ry     beta= 0.30
     Davidson diagonalization with overlap
     ethr =  7.90E-13,  avg # of iterations =  6.0

     negative rho (up, down):  3.514E-02 0.000E+00

     total cpu time spent up to now is     9204.4 secs

     total energy              =   -5283.70986628 Ry
     estimated scf accuracy    <       0.00000002 Ry

     iteration # 37     ecut=    60.00 Ry     beta= 0.30
     Davidson diagonalization with overlap
     ethr =  7.90E-13,  avg # of iterations =  5.0

     negative rho (up, down):  3.514E-02 0.000E+00

     total cpu time spent up to now is     9213.2 secs

     total energy              =   -5283.70986628 Ry
     estimated scf accuracy    <       0.00000002 Ry

     iteration # 38     ecut=    60.00 Ry     beta= 0.30
     Davidson diagonalization with overlap
     ethr =  7.90E-13,  avg # of iterations =  2.0

     negative rho (up, down):  3.514E-02 0.000E+00

     total cpu time spent up to now is     9220.3 secs

     total energy              =   -5283.70986627 Ry
     estimated scf accuracy    <          4.5E-09 Ry

     iteration # 39     ecut=    60.00 Ry     beta= 0.30
     Davidson diagonalization with overlap
     ethr =  7.90E-13,  avg # of iterations =  2.0

     negative rho (up, down):  3.514E-02 0.000E+00

     total cpu time spent up to now is     9227.2 secs

     total energy              =   -5283.70986627 Ry
     estimated scf accuracy    <          5.1E-09 Ry

     iteration # 40     ecut=    60.00 Ry     beta= 0.30
     Davidson diagonalization with overlap
     ethr =  7.90E-13,  avg # of iterations =  1.0

     negative rho (up, down):  3.514E-02 0.000E+00

     total cpu time spent up to now is     9233.7 secs

     total energy              =   -5283.70986628 Ry
     estimated scf accuracy    <          2.5E-09 Ry

     iteration # 41     ecut=    60.00 Ry     beta= 0.30
     Davidson diagonalization with overlap
     ethr =  4.53E-13,  avg # of iterations =  2.0

     negative rho (up, down):  3.514E-02 0.000E+00

     total cpu time spent up to now is     9240.8 secs

     total energy              =   -5283.70986628 Ry
     estimated scf accuracy    <          5.5E-09 Ry

     iteration # 42     ecut=    60.00 Ry     beta= 0.30
     Davidson diagonalization with overlap
     ethr =  4.53E-13,  avg # of iterations =  1.0

     negative rho (up, down):  3.514E-02 0.000E+00

     total cpu time spent up to now is     9247.5 secs

     total energy              =   -5283.70986628 Ry
     estimated scf accuracy    <          2.7E-09 Ry

     iteration # 43     ecut=    60.00 Ry     beta= 0.30
     Davidson diagonalization with overlap
     ethr =  4.53E-13,  avg # of iterations =  1.0

     negative rho (up, down):  3.514E-02 0.000E+00

     total cpu time spent up to now is     9254.0 secs

     End of self-consistent calculation

          k = 0.0000 0.0000 0.0000 ( 46961 PWs)   bands (ev):

   -69.6366 -69.6041 -69.5766 -69.5577 -69.5564 -69.5523 -69.5413 -69.5347
   -69.5181 -69.4888 -69.3117 -62.1485 -62.1268 -62.1245 -62.0791 -62.0723
   -61.9990 -61.9945 -61.9847 -61.8424 -61.7911 -54.3951 -54.3648 -54.2671
   -54.1137 -54.1035 -54.0837 -54.0614 -54.0456 -54.0232 -54.0038 -53.9394
   -41.0530 -41.0426 -41.0371 -41.0294 -41.0190 -41.0092 -40.9995 -40.9748
   -40.9678 -40.9626 -40.9516 -40.9467 -40.9373 -40.9329 -40.9298 -40.9097
   -40.8971 -40.8957 -40.8897 -40.8731 -40.8715 -40.8633 -40.8596 -40.8571
   -40.8460 -40.8338 -40.8256 -40.8192 -40.8025 -40.7902 -40.7577 -40.6659
   -40.5302 -36.1106 -36.0821 -36.0593 -36.0545 -36.0443 -36.0367 -36.0241
   -35.9872 -35.9790 -35.9736 -35.9570 -35.9515 -35.9415 -35.9209 -35.9182
   -35.9103 -35.9000 -35.8870 -35.8710 -35.8491 -35.8460 -35.8369 -35.7808
   -35.7709 -35.7499 -35.7135 -35.6809 -35.6613 -35.6405 -35.6096 -30.8298
   -30.7778 -30.6890 -30.6645 -30.6371 -30.6231 -30.6209 -30.6133 -30.5795
   -30.5539 -30.5296 -30.5287 -30.5173 -30.4894 -30.4815 -30.4725 -30.4702
   -30.4621 -30.4305 -30.4145 -30.4028 -30.3832 -30.3460 -30.3365 -30.3154
   -30.3066 -30.2949 -30.2651 -30.2544 -30.2257 -30.1892 -30.1837 -30.1469
   -10.7990  -9.7565  -9.3210  -9.2583  -9.1401  -9.0302  -8.6608  -8.4558
    -8.4019  -8.3814  -8.3381  -8.2348  -8.2131  -8.1126  -8.0543  -7.8664
    -7.7981  -7.7692  -7.6496  -7.5946  -7.5508  -7.5325  -7.4714  -7.4499
    -7.4038  -7.3703  -7.2165  -7.1376  -6.9834  -6.9387  -6.7678  -6.4951
    -4.0495  -3.9832  -3.9340  -3.8081  -3.0792  -2.9396  -2.7787  -2.7329
    -2.7108  -2.6577  -2.6352  -2.5581  -2.5035  -2.4446  -2.4328  -2.3080
    -2.1452  -2.1288  -2.0628  -1.9130  -1.8980  -1.8731  -1.8299  -1.7680
    -1.6847  -1.6062  -1.5531  -1.5102  -1.4794  -1.4685  -1.4296  -1.4193
    -1.4179  -1.4063  -1.4004  -1.3522  -1.3469  -1.3257  -1.3025  -1.2542
    -1.2165  -1.1702  -1.1516  -1.0992  -1.0483  -1.0244  -0.9918  -0.9606
    -0.9471  -0.9005  -0.8673  -0.8400  -0.7983  -0.7604  -0.7401  -0.7268
    -0.6964  -0.6788  -0.6610  -0.6352  -0.6271  -0.5122  -0.4833  -0.4018
    -0.3657  -0.3267  -0.2700  -0.2470  -0.2063  -0.1573  -0.1167  -0.1008
    -0.0748  -0.0204   0.0144   0.0286   0.0708   0.1980   0.2936   0.3508
     0.3812   0.4737   0.5660   0.6374   0.6441   0.7167   0.7760   0.9008
     0.9519   0.9737   1.0692   1.1645   1.2327   1.2664   1.3347   1.3494
     1.4690   1.5747   1.6429   1.7045   1.7291   1.8688   1.9142   2.0999
     2.1539   2.5759   2.6146   2.6748   2.7518   2.8178   2.8409   2.8848
     2.9622   3.0346   3.0381   3.0594   3.0842   3.1613   3.1638   3.1984
     3.2370   3.2467   3.2839   3.3115   3.3345   3.3527   3.3615   3.4123
     3.4373   3.4439   3.5151   3.5320   3.5382   3.5760   3.5956   3.6404
     3.6928   3.7671   3.8004   3.8404   3.8699   3.8857   3.9252   3.9635
     3.9772   4.0238   4.0423   4.0651   4.0959   4.1249   4.1801   4.1921
     4.2154   4.2490   4.2730   4.3685   4.3992   4.4654   4.4742   4.5157
     4.5302   4.5740   4.5897   4.6151   4.6978   4.7221

     the Fermi energy is     2.9291 ev

!    total energy              =   -5283.70986628 Ry
     estimated scf accuracy    <          5.0E-10 Ry
     smearing contrib. (-TS)   =      -0.03582462 Ry
     internal energy E=F+TS    =   -5283.67404165 Ry

     The total energy is F=E-TS. E is the sum of the following terms:
     one-electron contribution =  -55969.88249068 Ry
     hartree contribution      =   28008.72857197 Ry
     xc contribution           =    -787.68687127 Ry
     ewald contribution        =   23662.77125216 Ry
     one-center paw contrib.   =    -197.60450383 Ry

     convergence has been achieved in  43 iterations

     negative rho (up, down):  3.514E-02 0.000E+00

     Forces acting on atoms (cartesian axes, Ry/au):

     atom    1 type  1   force =    -0.00070036   -0.00237477    0.00232087
     atom    2 type  1   force =    -0.00703716   -0.00534021    0.00323751
     atom    3 type  1   force =     0.00020860   -0.00035255   -0.00065890
     atom    4 type  1   force =     0.00071961   -0.01643456    0.03056467
     atom    5 type  1   force =    -0.00452143    0.01299836    0.00159587
     atom    6 type  1   force =     0.00918517   -0.00233662    0.02756358
     atom    7 type  1   force =     0.00002137   -0.00034079   -0.00008830
     atom    8 type  1   force =    -0.00040649    0.00116406    0.00061520
     atom    9 type  1   force =     0.00031470   -0.00000582    0.00101492
     atom   10 type  1   force =     0.00247402   -0.00169562   -0.00173856
     atom   11 type  1   force =    -0.00325753    0.00091525   -0.00068415
     atom   12 type  2   force =    -0.00152796    0.00066017    0.00205205
     atom   13 type  2   force =     0.00240321    0.00228374    0.00140522
     atom   14 type  2   force =     0.02142850   -0.00474082    0.00763492
     atom   15 type  2   force =    -0.01060960    0.00229370    0.11328995
     atom   16 type  2   force =     0.00702748   -0.00118333    0.09505131
     atom   17 type  2   force =    -0.00012558    0.00067309   -0.00161633
     atom   18 type  2   force =     0.00018740    0.00078516   -0.00166842
     atom   19 type  2   force =     0.00025266    0.00008975    0.00084557
     atom   20 type  2   force =     0.00380301   -0.00898926   -0.01130859
     atom   21 type  2   force =     0.00267383    0.02036726   -0.01263768
     atom   22 type  3   force =    -0.00103404   -0.00139167    0.00142035
     atom   23 type  3   force =    -0.02217581   -0.01277709    0.00518981
     atom   24 type  3   force =     0.02588014    0.02173945   -0.01863117
     atom   25 type  3   force =     0.01434570   -0.01442099    0.06740964
     atom   26 type  3   force =    -0.00428959    0.01102376    0.12500771
     atom   27 type  3   force =    -0.00083203    0.00061020   -0.00222283
     atom   28 type  3   force =    -0.00994131   -0.00060857    0.03079638
     atom   29 type  3   force =     0.00266132   -0.00123882    0.00133279
     atom   30 type  3   force =    -0.00189496   -0.00317308    0.00271344
     atom   31 type  3   force =     0.00944771   -0.00167840   -0.01954134
     atom   32 type  3   force =    -0.01176365   -0.00382942   -0.00941032
     atom   33 type  4   force =     0.00237505   -0.00746180   -0.03422490
     atom   34 type  4   force =     0.00958478    0.01254009   -0.00376287
     atom   35 type  4   force =    -0.00261341   -0.01693402   -0.01959359
     atom   36 type  4   force =     0.00142798    0.01097359   -0.03388497
     atom   37 type  4   force =    -0.00003874    0.00070928    0.00109330
     atom   38 type  4   force =     0.00015975    0.00025026   -0.00001559
     atom   39 type  4   force =    -0.00037402   -0.00014584    0.00094397
     atom   40 type  4   force =     0.00018593   -0.00066592    0.00051127
     atom   41 type  4   force =    -0.00216514    0.00013422   -0.00297077
     atom   42 type  4   force =     0.00021667    0.00065639   -0.00023876
     atom   43 type  4   force =     0.00279672    0.00085408    0.00083064
     atom   44 type  4   force =     0.00248567    0.00019156    0.00078265
     atom   45 type  4   force =     0.00458171    0.00615858   -0.03681118
     atom   46 type  4   force =     0.00082870    0.00216789   -0.04336979
     atom   47 type  4   force =    -0.00908062   -0.00262490   -0.02027579
     atom   48 type  4   force =    -0.01431335   -0.00754870   -0.02351902
     atom   49 type  4   force =     0.00092943    0.00241509    0.00107238
     atom   50 type  4   force =    -0.00040353    0.00210241    0.00003406
     atom   51 type  4   force =    -0.00114662   -0.00030516   -0.00010273
     atom   52 type  4   force =     0.00005215    0.00086937   -0.00034886
     atom   53 type  4   force =    -0.00192420   -0.00559811   -0.03106896
     atom   54 type  4   force =    -0.00541808    0.00749655   -0.03194969
     atom   55 type  4   force =    -0.00051776    0.00435543   -0.03497379
     atom   56 type  4   force =    -0.00147726   -0.00841812   -0.02771786
     atom   57 type  4   force =    -0.01687292    0.00843371   -0.02410884
     atom   58 type  4   force =    -0.00942489   -0.00664966   -0.03095800
     atom   59 type  4   force =     0.01456338    0.01416748   -0.03017617
     atom   60 type  4   force =     0.00215510   -0.01030076   -0.01912061
     atom   61 type  4   force =     0.00046320    0.00003078    0.00090869
     atom   62 type  4   force =     0.00029234   -0.00040025   -0.00072854
     atom   63 type  4   force =     0.00034071   -0.00042112    0.00200390
     atom   64 type  4   force =    -0.00058572    0.00027600    0.00088526

     Total force =     0.012833     Total SCF correction =     0.000064
     Energy error            =      3.1E-04 Ry
     Gradient error          =      3.3E-03 Ry/Bohr

     number of scf cycles    =  22
     number of bfgs steps    =  21

     energy             old  =   -5283.7095573637 Ry
     energy             new  =   -5283.7098662754 Ry

     CASE: energy            _new < energy            _old

     new trust radius        =       0.0172923096 bohr
     new conv_thr            =       0.0000000010 Ry


ATOMIC_POSITIONS (angstrom)
Ti               8.3452514953       -0.0134623131       15.7727604223
Ti               0.0291331002        8.3621570543       11.5803477355    0   0   0
Ti               2.0912826261        4.2078564387       13.6925892035
Ti               8.3795041056        2.0957563981        9.4724378689    0   0   0
Ti               8.3750099733        6.2687152092        9.4933225157    0   0   0
Ti               4.2170671874        6.2898439467        9.4911460380    0   0   0
Ti               8.3713776169        2.0941571530       13.6532823954
Ti               8.3901090330        6.2636972187       13.6394830608
Ti               4.2040027660        6.2662917819       13.6507599394
Ti               2.0891212637        6.2337116673       15.8007356964
Ti               6.2550026379        6.2414505328       15.7824188027
V                8.3051460747        4.0940521196       15.6809987146
V                4.1536747580        4.0285528176       15.6598964083
V                4.1453105473        4.2119457891       11.5975026988    0   0   0
V                2.1879867013        0.0520231596        9.5054883674    0   0   0
V                2.1522427348        4.1319303501        9.4904675789    0   0   0
V                2.1035771303        8.3553766332       13.6543904165
V                6.2992235611        4.2231988904       13.7368123136
V                4.1917792715        2.1178064221       13.5538152341
V                2.1048639148        6.2714192178       11.5723879270    0   0   0
V                6.3158808164        6.1438819511       11.5700667150    0   0   0
Cr               4.1466785350       -0.0368186277       15.5710356151
Cr               0.1179128009        4.1786640750       11.5195623927    0   0   0
Cr               4.1681598842        8.2577799257       11.6615352591    0   0   0
Cr               6.1999882077        0.1106418811        9.6948923906    0   0   0
Cr               6.2007452456        4.0563627707        9.3394942948    0   0   0
Cr               6.3295149067        8.2736573985       13.5684963291
Cr               4.2149984025        2.0754774019        9.7444374941    0   0   0
Cr               2.0403276272        2.0437742859       15.5913734516
Cr               6.1639780159        1.9706220421       15.5431156473
Cr               2.0054620409        2.1149661174       11.6192682974    0   0   0
Cr               6.3992485267        2.2488278238       11.6549867199    0   0   0
C                8.3671464633        0.0123762133        9.4921945368    0   0   0
C                8.3685510870        4.1683341954        9.4949958325    0   0   0
C                4.2233794382        0.0660683478        9.5137772640    0   0   0
C                4.2071394793        4.1170355077        9.4900603783    0   0   0
C                8.3755114746       -0.0112049523       13.7518004193
C                8.3487671495        4.1629027218       13.7629739963
C                4.2185341753        0.0057525946       13.7090579353
C                4.2094359876        4.1230715899       13.7148490569
C                2.2435585414        0.1328699135       15.8931223389
C                2.1907651297        4.1680826661       15.9298359218
C                6.2811451283        0.1193590872       15.9129447055
C                6.3104759880        4.1505781030       15.9013511707
C                2.1521326937        0.0175132539       11.5903255372    0   0   0
C                2.1078429860        4.1683083653       11.5671868517    0   0   0
C                6.2417937451        0.0188099573       11.6002801854    0   0   0
C                6.3283074126        4.1569384024       11.5682471185    0   0   0
C                8.5575279037        2.1445790205       15.9104195015
C                8.4133145488        6.2985391424       16.0163880393
C                4.2841191184        2.1087773918       15.7657248414
C                4.2338256854        6.4642593215       15.9555432175
C                0.0147673152        2.1438801594       11.5939557114    0   0   0
C                0.0200697416        6.2277703895       11.5821679336    0   0   0
C                4.2182428542        2.0594943016       11.6100232202    0   0   0
C                4.2117703951        6.2583221129       11.5919858628    0   0   0
C                2.1713130363        2.0860319016        9.4919958919    0   0   0
C                2.1164500536        6.2753611976        9.5156635851    0   0   0
C                6.2203151227        2.0809934926        9.4961719556    0   0   0
C                6.2861737462        6.2618311600        9.5257047400    0   0   0
C                2.1189027172        2.0569777426       13.7296177703
C                2.1065004065        6.2883812584       13.7652604894
C                6.2452881153        2.0523263549       13.6891533749
C                6.2963318543        6.2411423296       13.7322945327



     Writing config-only to output data dir ./tmp/hec3_CrTiV_f100_CO_clean.save/ :
     XML data file
     NEW-OLD atomic charge density approx. for the potential

     Check: negative core charge=   -0.000005

     negative rho (up, down):  3.497E-02 0.000E+00

     total cpu time spent up to now is     9264.1 secs

     Self-consistent Calculation

     iteration #  1     ecut=    60.00 Ry     beta= 0.30
     Davidson diagonalization with overlap
     ethr =  1.00E-06,  avg # of iterations =  5.0

     negative rho (up, down):  3.497E-02 0.000E+00

     total cpu time spent up to now is     9273.4 secs

     total energy              =   -5283.70926990 Ry
     estimated scf accuracy    <       0.00197842 Ry

     iteration #  2     ecut=    60.00 Ry     beta= 0.30
     Davidson diagonalization with overlap
     ethr =  3.64E-07,  avg # of iterations = 13.0

     negative rho (up, down):  3.497E-02 0.000E+00

     total cpu time spent up to now is     9286.2 secs

     total energy              =   -5283.70539727 Ry
     estimated scf accuracy    <       0.22799731 Ry

     iteration #  3     ecut=    60.00 Ry     beta= 0.30
     Davidson diagonalization with overlap
     ethr =  3.64E-07,  avg # of iterations = 18.0

     negative rho (up, down):  3.496E-02 0.000E+00

     total cpu time spent up to now is     9302.6 secs

     total energy              =   -5283.70901315 Ry
     estimated scf accuracy    <       0.04572137 Ry

     iteration #  4     ecut=    60.00 Ry     beta= 0.30
     Davidson diagonalization with overlap
     ethr =  3.64E-07,  avg # of iterations =  5.0

     negative rho (up, down):  3.497E-02 0.000E+00

     total cpu time spent up to now is     9311.2 secs

     total energy              =   -5283.70987452 Ry
     estimated scf accuracy    <       0.00359188 Ry

     iteration #  5     ecut=    60.00 Ry     beta= 0.30
     Davidson diagonalization with overlap
     ethr =  3.64E-07,  avg # of iterations =  2.0

     negative rho (up, down):  3.497E-02 0.000E+00

     total cpu time spent up to now is     9318.5 secs

     total energy              =   -5283.70998935 Ry
     estimated scf accuracy    <       0.00089363 Ry

     iteration #  6     ecut=    60.00 Ry     beta= 0.30
     Davidson diagonalization with overlap
     ethr =  1.64E-07,  avg # of iterations =  2.0

     negative rho (up, down):  3.498E-02 0.000E+00

     total cpu time spent up to now is     9326.0 secs

     total energy              =   -5283.71000311 Ry
     estimated scf accuracy    <       0.00102137 Ry

     iteration #  7     ecut=    60.00 Ry     beta= 0.30
     Davidson diagonalization with overlap
     ethr =  1.64E-07,  avg # of iterations =  1.0

     negative rho (up, down):  3.497E-02 0.000E+00

     total cpu time spent up to now is     9332.6 secs

     total energy              =   -5283.71002298 Ry
     estimated scf accuracy    <       0.00068029 Ry

     iteration #  8     ecut=    60.00 Ry     beta= 0.30
     Davidson diagonalization with overlap
     ethr =  1.25E-07,  avg # of iterations =  1.0

     negative rho (up, down):  3.498E-02 0.000E+00

     total cpu time spent up to now is     9339.2 secs

     total energy              =   -5283.71003526 Ry
     estimated scf accuracy    <       0.00044237 Ry

     iteration #  9     ecut=    60.00 Ry     beta= 0.30
     Davidson diagonalization with overlap
     ethr =  8.13E-08,  avg # of iterations =  1.0

     negative rho (up, down):  3.498E-02 0.000E+00

     total cpu time spent up to now is     9345.6 secs

     total energy              =   -5283.71004212 Ry
     estimated scf accuracy    <       0.00038764 Ry

     iteration # 10     ecut=    60.00 Ry     beta= 0.30
     Davidson diagonalization with overlap
     ethr =  7.13E-08,  avg # of iterations =  1.0

     negative rho (up, down):  3.498E-02 0.000E+00

     total cpu time spent up to now is     9352.4 secs

     total energy              =   -5283.71005129 Ry
     estimated scf accuracy    <       0.00005230 Ry

     iteration # 11     ecut=    60.00 Ry     beta= 0.30
     Davidson diagonalization with overlap
     ethr =  9.61E-09,  avg # of iterations =  5.0

     negative rho (up, down):  3.498E-02 0.000E+00

     total cpu time spent up to now is     9360.8 secs

     total energy              =   -5283.71005140 Ry
     estimated scf accuracy    <       0.00010505 Ry

     iteration # 12     ecut=    60.00 Ry     beta= 0.30
     Davidson diagonalization with overlap
     ethr =  9.61E-09,  avg # of iterations =  5.0

     negative rho (up, down):  3.498E-02 0.000E+00

     total cpu time spent up to now is     9369.1 secs

     total energy              =   -5283.71005131 Ry
     estimated scf accuracy    <       0.00015036 Ry

     iteration # 13     ecut=    60.00 Ry     beta= 0.30
     Davidson diagonalization with overlap
     ethr =  9.61E-09,  avg # of iterations =  2.0

     negative rho (up, down):  3.498E-02 0.000E+00

     total cpu time spent up to now is     9376.1 secs

     total energy              =   -5283.71005262 Ry
     estimated scf accuracy    <       0.00025294 Ry

     iteration # 14     ecut=    60.00 Ry     beta= 0.30
     Davidson diagonalization with overlap
     ethr =  9.61E-09,  avg # of iterations =  1.0

     negative rho (up, down):  3.498E-02 0.000E+00

     total cpu time spent up to now is     9382.7 secs

     total energy              =   -5283.71005682 Ry
     estimated scf accuracy    <       0.00000348 Ry

     iteration # 15     ecut=    60.00 Ry     beta= 0.30
     Davidson diagonalization with overlap
     ethr =  6.39E-10,  avg # of iterations =  6.0

     negative rho (up, down):  3.498E-02 0.000E+00

     total cpu time spent up to now is     9391.9 secs

     total energy              =   -5283.71005638 Ry
     estimated scf accuracy    <       0.00002053 Ry

     iteration # 16     ecut=    60.00 Ry     beta= 0.30
     Davidson diagonalization with overlap
     ethr =  6.39E-10,  avg # of iterations =  5.0

     negative rho (up, down):  3.498E-02 0.000E+00

     total cpu time spent up to now is     9400.7 secs

     total energy              =   -5283.71005698 Ry
     estimated scf accuracy    <       0.00000716 Ry

     iteration # 17     ecut=    60.00 Ry     beta= 0.30
     Davidson diagonalization with overlap
     ethr =  6.39E-10,  avg # of iterations =  2.0

     negative rho (up, down):  3.498E-02 0.000E+00

     total cpu time spent up to now is     9407.9 secs

     total energy              =   -5283.71005705 Ry
     estimated scf accuracy    <       0.00000528 Ry

     iteration # 18     ecut=    60.00 Ry     beta= 0.30
     Davidson diagonalization with overlap
     ethr =  6.39E-10,  avg # of iterations =  2.0

     negative rho (up, down):  3.498E-02 0.000E+00

     total cpu time spent up to now is     9415.2 secs

     total energy              =   -5283.71005713 Ry
     estimated scf accuracy    <       0.00000516 Ry

     iteration # 19     ecut=    60.00 Ry     beta= 0.30
     Davidson diagonalization with overlap
     ethr =  6.39E-10,  avg # of iterations =  1.0

     negative rho (up, down):  3.498E-02 0.000E+00

     total cpu time spent up to now is     9422.1 secs

     total energy              =   -5283.71005716 Ry
     estimated scf accuracy    <       0.00000520 Ry

     iteration # 20     ecut=    60.00 Ry     beta= 0.30
     Davidson diagonalization with overlap
     ethr =  6.39E-10,  avg # of iterations =  1.0

     negative rho (up, down):  3.498E-02 0.000E+00

     total cpu time spent up to now is     9429.1 secs

     total energy              =   -5283.71005728 Ry
     estimated scf accuracy    <       0.00000088 Ry

     iteration # 21     ecut=    60.00 Ry     beta= 0.30
     Davidson diagonalization with overlap
     ethr =  1.62E-10,  avg # of iterations =  2.0

     negative rho (up, down):  3.498E-02 0.000E+00

     total cpu time spent up to now is     9436.7 secs

     total energy              =   -5283.71005729 Ry
     estimated scf accuracy    <       0.00000132 Ry

     iteration # 22     ecut=    60.00 Ry     beta= 0.30
     Davidson diagonalization with overlap
     ethr =  1.62E-10,  avg # of iterations =  1.0

     negative rho (up, down):  3.498E-02 0.000E+00

     total cpu time spent up to now is     9443.2 secs

     total energy              =   -5283.71005731 Ry
     estimated scf accuracy    <       0.00000070 Ry

     iteration # 23     ecut=    60.00 Ry     beta= 0.30
     Davidson diagonalization with overlap
     ethr =  1.29E-10,  avg # of iterations =  2.0

     negative rho (up, down):  3.498E-02 0.000E+00

     total cpu time spent up to now is     9450.2 secs

     total energy              =   -5283.71005725 Ry
     estimated scf accuracy    <       0.00000591 Ry

     iteration # 24     ecut=    60.00 Ry     beta= 0.30
     Davidson diagonalization with overlap
     ethr =  1.29E-10,  avg # of iterations =  2.0

     negative rho (up, down):  3.498E-02 0.000E+00

     total cpu time spent up to now is     9457.1 secs

     total energy              =   -5283.71005733 Ry
     estimated scf accuracy    <       0.00000069 Ry

     iteration # 25     ecut=    60.00 Ry     beta= 0.30
     Davidson diagonalization with overlap
     ethr =  1.27E-10,  avg # of iterations =  1.0

     negative rho (up, down):  3.498E-02 0.000E+00

     total cpu time spent up to now is     9463.7 secs

     total energy              =   -5283.71005734 Ry
     estimated scf accuracy    <       0.00000021 Ry

     iteration # 26     ecut=    60.00 Ry     beta= 0.30
     Davidson diagonalization with overlap
     ethr =  3.91E-11,  avg # of iterations =  2.0

     negative rho (up, down):  3.498E-02 0.000E+00

     total cpu time spent up to now is     9471.1 secs

     total energy              =   -5283.71005734 Ry
     estimated scf accuracy    <       0.00000057 Ry

     iteration # 27     ecut=    60.00 Ry     beta= 0.30
     Davidson diagonalization with overlap
     ethr =  3.91E-11,  avg # of iterations =  1.0

     negative rho (up, down):  3.498E-02 0.000E+00

     total cpu time spent up to now is     9478.1 secs

     total energy              =   -5283.71005735 Ry
     estimated scf accuracy    <       0.00000025 Ry

     iteration # 28     ecut=    60.00 Ry     beta= 0.30
     Davidson diagonalization with overlap
     ethr =  3.91E-11,  avg # of iterations =  1.0

     negative rho (up, down):  3.498E-02 0.000E+00

     total cpu time spent up to now is     9485.1 secs

     total energy              =   -5283.71005735 Ry
     estimated scf accuracy    <       0.00000024 Ry

     iteration # 29     ecut=    60.00 Ry     beta= 0.30
     Davidson diagonalization with overlap
     ethr =  3.91E-11,  avg # of iterations =  1.0

     negative rho (up, down):  3.498E-02 0.000E+00

     total cpu time spent up to now is     9491.5 secs

     total energy              =   -5283.71005735 Ry
     estimated scf accuracy    <       0.00000024 Ry

     iteration # 30     ecut=    60.00 Ry     beta= 0.30
     Davidson diagonalization with overlap
     ethr =  3.91E-11,  avg # of iterations =  1.0

     negative rho (up, down):  3.498E-02 0.000E+00

     total cpu time spent up to now is     9498.3 secs

     total energy              =   -5283.71005736 Ry
     estimated scf accuracy    <       0.00000009 Ry

     iteration # 31     ecut=    60.00 Ry     beta= 0.30
     Davidson diagonalization with overlap
     ethr =  1.73E-11,  avg # of iterations =  1.0

     negative rho (up, down):  3.498E-02 0.000E+00

     total cpu time spent up to now is     9504.9 secs

     total energy              =   -5283.71005736 Ry
     estimated scf accuracy    <       0.00000002 Ry

     iteration # 32     ecut=    60.00 Ry     beta= 0.30
     Davidson diagonalization with overlap
     ethr =  3.39E-12,  avg # of iterations =  2.0

     negative rho (up, down):  3.498E-02 0.000E+00

     total cpu time spent up to now is     9511.9 secs

     total energy              =   -5283.71005736 Ry
     estimated scf accuracy    <       0.00000002 Ry

     iteration # 33     ecut=    60.00 Ry     beta= 0.30
     Davidson diagonalization with overlap
     ethr =  3.39E-12,  avg # of iterations =  2.0

     negative rho (up, down):  3.498E-02 0.000E+00

     total cpu time spent up to now is     9518.7 secs

     total energy              =   -5283.71005736 Ry
     estimated scf accuracy    <       0.00000018 Ry

     iteration # 34     ecut=    60.00 Ry     beta= 0.30
     Davidson diagonalization with overlap
     ethr =  3.39E-12,  avg # of iterations =  2.0

     negative rho (up, down):  3.498E-02 0.000E+00

     total cpu time spent up to now is     9525.9 secs

     total energy              =   -5283.71005736 Ry
     estimated scf accuracy    <       0.00000004 Ry

     iteration # 35     ecut=    60.00 Ry     beta= 0.30
     Davidson diagonalization with overlap
     ethr =  3.39E-12,  avg # of iterations =  1.0

     negative rho (up, down):  3.498E-02 0.000E+00

     total cpu time spent up to now is     9532.3 secs

     total energy              =   -5283.71005736 Ry
     estimated scf accuracy    <          7.3E-09 Ry

     iteration # 36     ecut=    60.00 Ry     beta= 0.30
     Davidson diagonalization with overlap
     ethr =  1.34E-12,  avg # of iterations =  2.0

     negative rho (up, down):  3.498E-02 0.000E+00

     total cpu time spent up to now is     9539.7 secs

     total energy              =   -5283.71005736 Ry
     estimated scf accuracy    <       0.00000003 Ry

     iteration # 37     ecut=    60.00 Ry     beta= 0.30
     Davidson diagonalization with overlap
     ethr =  1.34E-12,  avg # of iterations =  2.0

     negative rho (up, down):  3.498E-02 0.000E+00

     total cpu time spent up to now is     9547.1 secs

     total energy              =   -5283.71005736 Ry
     estimated scf accuracy    <       0.00000002 Ry

     iteration # 38     ecut=    60.00 Ry     beta= 0.30
     Davidson diagonalization with overlap
     ethr =  1.34E-12,  avg # of iterations =  2.0

     negative rho (up, down):  3.498E-02 0.000E+00

     total cpu time spent up to now is     9554.1 secs

     total energy              =   -5283.71005737 Ry
     estimated scf accuracy    <       0.00000002 Ry

     iteration # 39     ecut=    60.00 Ry     beta= 0.30
     Davidson diagonalization with overlap
     ethr =  1.34E-12,  avg # of iterations =  2.0

     negative rho (up, down):  3.498E-02 0.000E+00

     total cpu time spent up to now is     9560.9 secs

     total energy              =   -5283.71005736 Ry
     estimated scf accuracy    <       0.00000002 Ry

     iteration # 40     ecut=    60.00 Ry     beta= 0.30
     Davidson diagonalization with overlap
     ethr =  1.34E-12,  avg # of iterations =  2.0

     negative rho (up, down):  3.498E-02 0.000E+00

     total cpu time spent up to now is     9567.9 secs

     total energy              =   -5283.71005736 Ry
     estimated scf accuracy    <       0.00000001 Ry

     iteration # 41     ecut=    60.00 Ry     beta= 0.30
     Davidson diagonalization with overlap
     ethr =  1.34E-12,  avg # of iterations =  1.0

     negative rho (up, down):  3.498E-02 0.000E+00

     total cpu time spent up to now is     9574.4 secs

     total energy              =   -5283.71005736 Ry
     estimated scf accuracy    <          2.7E-09 Ry

     iteration # 42     ecut=    60.00 Ry     beta= 0.30
     Davidson diagonalization with overlap
     ethr =  4.88E-13,  avg # of iterations =  2.0

     negative rho (up, down):  3.498E-02 0.000E+00

     total cpu time spent up to now is     9581.6 secs

     total energy              =   -5283.71005736 Ry
     estimated scf accuracy    <          2.4E-09 Ry

     iteration # 43     ecut=    60.00 Ry     beta= 0.30
     Davidson diagonalization with overlap
     ethr =  4.42E-13,  avg # of iterations =  1.0

     negative rho (up, down):  3.498E-02 0.000E+00

     total cpu time spent up to now is     9587.6 secs

     total energy              =   -5283.71005736 Ry
     estimated scf accuracy    <          7.0E-09 Ry

     iteration # 44     ecut=    60.00 Ry     beta= 0.30
     Davidson diagonalization with overlap
     ethr =  4.42E-13,  avg # of iterations =  1.0

     negative rho (up, down):  3.498E-02 0.000E+00

     total cpu time spent up to now is     9594.3 secs

     total energy              =   -5283.71005737 Ry
     estimated scf accuracy    <          2.6E-09 Ry

     iteration # 45     ecut=    60.00 Ry     beta= 0.30
     Davidson diagonalization with overlap
     ethr =  4.42E-13,  avg # of iterations =  1.0

     negative rho (up, down):  3.498E-02 0.000E+00

     total cpu time spent up to now is     9600.7 secs

     total energy              =   -5283.71005736 Ry
     estimated scf accuracy    <          1.3E-09 Ry

     iteration # 46     ecut=    60.00 Ry     beta= 0.30
     Davidson diagonalization with overlap
     ethr =  2.37E-13,  avg # of iterations =  1.0

     negative rho (up, down):  3.498E-02 0.000E+00

     total cpu time spent up to now is     9607.2 secs

     End of self-consistent calculation

          k = 0.0000 0.0000 0.0000 ( 46961 PWs)   bands (ev):

   -69.6346 -69.6076 -69.5786 -69.5584 -69.5573 -69.5542 -69.5413 -69.5358
   -69.5165 -69.4899 -69.3130 -62.1493 -62.1282 -62.1258 -62.0814 -62.0734
   -61.9997 -61.9961 -61.9864 -61.8445 -61.7904 -54.3959 -54.3658 -54.2680
   -54.1158 -54.1055 -54.0862 -54.0643 -54.0408 -54.0189 -54.0008 -53.9408
   -41.0550 -41.0475 -41.0350 -41.0288 -41.0193 -41.0099 -41.0021 -40.9745
   -40.9688 -40.9629 -40.9525 -40.9468 -40.9381 -40.9334 -40.9312 -40.9094
   -40.9002 -40.8980 -40.8905 -40.8744 -40.8724 -40.8638 -40.8607 -40.8594
   -40.8471 -40.8355 -40.8246 -40.8204 -40.8029 -40.7911 -40.7590 -40.6672
   -40.5314 -36.1125 -36.0834 -36.0605 -36.0558 -36.0455 -36.0382 -36.0262
   -35.9886 -35.9804 -35.9752 -35.9585 -35.9532 -35.9429 -35.9221 -35.9187
   -35.9114 -35.9013 -35.8885 -35.8721 -35.8503 -35.8467 -35.8380 -35.7822
   -35.7724 -35.7519 -35.7155 -35.6798 -35.6608 -35.6425 -35.6102 -30.8306
   -30.7787 -30.6898 -30.6654 -30.6379 -30.6245 -30.6226 -30.6144 -30.5805
   -30.5552 -30.5298 -30.5284 -30.5189 -30.4916 -30.4828 -30.4740 -30.4711
   -30.4620 -30.4304 -30.4142 -30.4041 -30.3832 -30.3464 -30.3360 -30.3135
   -30.3062 -30.2938 -30.2641 -30.2531 -30.2262 -30.1878 -30.1827 -30.1438
   -10.7995  -9.7585  -9.3214  -9.2589  -9.1404  -9.0313  -8.6624  -8.4566
    -8.4043  -8.3827  -8.3387  -8.2361  -8.2150  -8.1137  -8.0562  -7.8669
    -7.7993  -7.7702  -7.6508  -7.5958  -7.5521  -7.5337  -7.4716  -7.4555
    -7.4075  -7.3699  -7.2149  -7.1341  -6.9846  -6.9400  -6.7667  -6.4940
    -4.0508  -3.9841  -3.9352  -3.8097  -3.0822  -2.9413  -2.7787  -2.7324
    -2.7114  -2.6588  -2.6349  -2.5603  -2.5051  -2.4467  -2.4332  -2.3102
    -2.1460  -2.1291  -2.0643  -1.9131  -1.8993  -1.8750  -1.8308  -1.7702
    -1.6874  -1.6078  -1.5547  -1.5115  -1.4817  -1.4703  -1.4305  -1.4207
    -1.4189  -1.4078  -1.4016  -1.3539  -1.3492  -1.3292  -1.3052  -1.2553
    -1.2193  -1.1717  -1.1561  -1.0998  -1.0520  -1.0243  -0.9938  -0.9607
    -0.9483  -0.9025  -0.8694  -0.8404  -0.8001  -0.7614  -0.7423  -0.7278
    -0.6975  -0.6799  -0.6627  -0.6367  -0.6284  -0.5149  -0.4871  -0.4002
    -0.3641  -0.3293  -0.2713  -0.2428  -0.2062  -0.1582  -0.1164  -0.1026
    -0.0756  -0.0226   0.0135   0.0295   0.0697   0.1964   0.2888   0.3503
     0.3797   0.4668   0.5649   0.6343   0.6394   0.7169   0.7737   0.8981
     0.9516   0.9719   1.0657   1.1634   1.2311   1.2638   1.3338   1.3493
     1.4674   1.5729   1.6401   1.7012   1.7280   1.8650   1.9130   2.0899
     2.1529   2.5750   2.6139   2.6750   2.7506   2.8171   2.8375   2.8832
     2.9615   3.0338   3.0351   3.0566   3.0840   3.1600   3.1631   3.1984
     3.2344   3.2468   3.2842   3.3104   3.3340   3.3525   3.3625   3.4127
     3.4376   3.4432   3.5154   3.5321   3.5377   3.5755   3.5963   3.6405
     3.6945   3.7687   3.8003   3.8394   3.8691   3.8850   3.9256   3.9624
     3.9747   4.0230   4.0400   4.0647   4.0940   4.1231   4.1800   4.1919
     4.2167   4.2473   4.2711   4.3691   4.3994   4.4647   4.4719   4.5144
     4.5300   4.5758   4.5901   4.6149   4.6980   4.7213

     the Fermi energy is     2.9277 ev

!    total energy              =   -5283.71005736 Ry
     estimated scf accuracy    <          9.5E-10 Ry
     smearing contrib. (-TS)   =      -0.03586470 Ry
     internal energy E=F+TS    =   -5283.67419266 Ry

     The total energy is F=E-TS. E is the sum of the following terms:
     one-electron contribution =  -55969.51685588 Ry
     hartree contribution      =   28008.52803657 Ry
     xc contribution           =    -787.69403980 Ry
     ewald contribution        =   23662.61345298 Ry
     one-center paw contrib.   =    -197.60478654 Ry

     convergence has been achieved in  46 iterations

     negative rho (up, down):  3.498E-02 0.000E+00

     Forces acting on atoms (cartesian axes, Ry/au):

     atom    1 type  1   force =     0.00049666   -0.00261883    0.00398529
     atom    2 type  1   force =    -0.00687452   -0.00518243    0.00315280
     atom    3 type  1   force =     0.00011903   -0.00103210   -0.00044240
     atom    4 type  1   force =     0.00075989   -0.01646938    0.03056845
     atom    5 type  1   force =    -0.00448412    0.01302835    0.00162603
     atom    6 type  1   force =     0.00920080   -0.00239141    0.02763159
     atom    7 type  1   force =     0.00013957   -0.00020902   -0.00061148
     atom    8 type  1   force =    -0.00057591    0.00097274   -0.00021082
     atom    9 type  1   force =     0.00042576    0.00051603   -0.00047678
     atom   10 type  1   force =     0.00152828   -0.00049941   -0.00000712
     atom   11 type  1   force =    -0.00117269    0.00112229    0.00046873
     atom   12 type  2   force =    -0.00027004    0.00077035    0.00331879
     atom   13 type  2   force =     0.00170804    0.00207677    0.00066515
     atom   14 type  2   force =     0.02125276   -0.00477369    0.00766880
     atom   15 type  2   force =    -0.01072073    0.00222370    0.11314657
     atom   16 type  2   force =     0.00707798   -0.00112597    0.09493738
     atom   17 type  2   force =     0.00014325    0.00059916   -0.00120796
     atom   18 type  2   force =     0.00079725   -0.00004372   -0.00133575
     atom   19 type  2   force =     0.00016145   -0.00050755   -0.00000860
     atom   20 type  2   force =     0.00400557   -0.00887414   -0.01131999
     atom   21 type  2   force =     0.00259591    0.02030107   -0.01245245
     atom   22 type  3   force =    -0.00029197   -0.00279434    0.00221864
     atom   23 type  3   force =    -0.02234105   -0.01276571    0.00514417
     atom   24 type  3   force =     0.02516694    0.02164861   -0.01860940
     atom   25 type  3   force =     0.01441789   -0.01437864    0.06713574
     atom   26 type  3   force =    -0.00423600    0.01103149    0.12503377
     atom   27 type  3   force =    -0.00087700    0.00114207   -0.00191437
     atom   28 type  3   force =    -0.00990930   -0.00057035    0.03087250
     atom   29 type  3   force =     0.00338643   -0.00009553    0.00161032
     atom   30 type  3   force =    -0.00110079   -0.00070901    0.00274513
     atom   31 type  3   force =     0.00951091   -0.00147816   -0.01947254
     atom   32 type  3   force =    -0.01183434   -0.00376829   -0.00929273
     atom   33 type  4   force =     0.00239535   -0.00745660   -0.03415356
     atom   34 type  4   force =     0.00956108    0.01252718   -0.00369095
     atom   35 type  4   force =    -0.00258007   -0.01690015   -0.01945427
     atom   36 type  4   force =     0.00139617    0.01099680   -0.03383089
     atom   37 type  4   force =    -0.00042180    0.00017946   -0.00061417
     atom   38 type  4   force =     0.00030726    0.00065199   -0.00036609
     atom   39 type  4   force =     0.00017715   -0.00036394    0.00034688
     atom   40 type  4   force =     0.00050496   -0.00005099    0.00046212
     atom   41 type  4   force =    -0.00266845   -0.00075930   -0.00252916
     atom   42 type  4   force =    -0.00022806    0.00021491   -0.00070214
     atom   43 type  4   force =     0.00134992   -0.00023109    0.00118857
     atom   44 type  4   force =     0.00140932    0.00000868    0.00041435
     atom   45 type  4   force =     0.00469425    0.00617218   -0.03675642
     atom   46 type  4   force =     0.00079417    0.00212359   -0.04321679
     atom   47 type  4   force =    -0.00897896   -0.00275609   -0.01992603
     atom   48 type  4   force =    -0.01422324   -0.00744126   -0.02319120
     atom   49 type  4   force =    -0.00121127    0.00230041    0.00116185
     atom   50 type  4   force =    -0.00039905    0.00205787   -0.00052856
     atom   51 type  4   force =    -0.00126515   -0.00093174    0.00011640
     atom   52 type  4   force =    -0.00040987    0.00150407   -0.00071839
     atom   53 type  4   force =    -0.00198247   -0.00552802   -0.03048503
     atom   54 type  4   force =    -0.00547677    0.00739448   -0.03168629
     atom   55 type  4   force =    -0.00051788    0.00440836   -0.03427602
     atom   56 type  4   force =    -0.00146525   -0.00839662   -0.02723555
     atom   57 type  4   force =    -0.01691659    0.00842069   -0.02389795
     atom   58 type  4   force =    -0.00945379   -0.00661873   -0.03105043
     atom   59 type  4   force =     0.01459077    0.01413750   -0.03009385
     atom   60 type  4   force =     0.00214446   -0.01033661   -0.01919001
     atom   61 type  4   force =     0.00096337   -0.00036647   -0.00054887
     atom   62 type  4   force =     0.00017407   -0.00018785   -0.00081821
     atom   63 type  4   force =     0.00003431   -0.00047243    0.00068923
     atom   64 type  4   force =    -0.00050382    0.00055473    0.00001398

     Total force =     0.011900     Total SCF correction =     0.000065
     Energy error            =      1.9E-04 Ry
     Gradient error          =      4.0E-03 Ry/Bohr

     number of scf cycles    =  23
     number of bfgs steps    =  22

     energy             old  =   -5283.7098662754 Ry
     energy             new  =   -5283.7100573614 Ry

     CASE: energy            _new < energy            _old

     new trust radius        =       0.0096227261 bohr
     new conv_thr            =       0.0000000010 Ry


ATOMIC_POSITIONS (angstrom)
Ti               8.3463696782       -0.0150654939       15.7747284746
Ti               0.0291331002        8.3621570543       11.5803477355    0   0   0
Ti               2.0915909052        4.2075726836       13.6919273637
Ti               8.3795041056        2.0957563981        9.4724378689    0   0   0
Ti               8.3750099733        6.2687152092        9.4933225157    0   0   0
Ti               4.2170671874        6.2898439467        9.4911460380    0   0   0
Ti               8.3714308933        2.0944710095       13.6542250009
Ti               8.3896397106        6.2644009707       13.6399902668
Ti               4.2041702422        6.2662908098       13.6513610419
Ti               2.0911459330        6.2319818503       15.7980849355
Ti               6.2524731664        6.2434063974       15.7820523340
V                8.3040926098        4.0966208720       15.6828709451
V                4.1569195943        4.0308091551       15.6616674618
V                4.1453105473        4.2119457891       11.5975026988    0   0   0
V                2.1879867013        0.0520231596        9.5054883674    0   0   0
V                2.1522427348        4.1319303501        9.4904675789    0   0   0
V                2.1028954393        8.3561407596       13.6521651677
V                6.2991152358        4.2240819577       13.7354595008
V                4.1925114967        2.1183841249       13.5551989621
V                2.1048639148        6.2714192178       11.5723879270    0   0   0
V                6.3158808164        6.1438819511       11.5700667150    0   0   0
Cr               4.1422626006       -0.0377966238       15.5714575305
Cr               0.1179128009        4.1786640750       11.5195623927    0   0   0
Cr               4.1681598842        8.2577799257       11.6615352591    0   0   0
Cr               6.1999882077        0.1106418811        9.6948923906    0   0   0
Cr               6.2007452456        4.0563627707        9.3394942948    0   0   0
Cr               6.3293675655        8.2742625975       13.5643564498
Cr               4.2149984025        2.0754774019        9.7444374941    0   0   0
Cr               2.0450669727        2.0445361231       15.5930728541
Cr               6.1624174834        1.9674348740       15.5466038173
Cr               2.0054620409        2.1149661174       11.6192682974    0   0   0
Cr               6.3992485267        2.2488278238       11.6549867199    0   0   0
C                8.3671464633        0.0123762133        9.4921945368    0   0   0
C                8.3685510870        4.1683341954        9.4949958325    0   0   0
C                4.2233794382        0.0660683478        9.5137772640    0   0   0
C                4.2071394793        4.1170355077        9.4900603783    0   0   0
C                8.3756629135       -0.0103324082       13.7526178369
C                8.3485577457        4.1634188985       13.7627354797
C                4.2179576730        0.0060387563       13.7091247193
C                4.2096336577        4.1229705848       13.7160523552
C                2.2409036839        0.1309226433       15.8893222237
C                2.1932218734        4.1687884750       15.9304390807
C                6.2822922591        0.1203444544       15.9153094488
C                6.3125072494        4.1512120742       15.9029568313
C                2.1521326937        0.0175132539       11.5903255372    0   0   0
C                2.1078429860        4.1683083653       11.5671868517    0   0   0
C                6.2417937451        0.0188099573       11.6002801854    0   0   0
C                6.3283074126        4.1569384024       11.5682471185    0   0   0
C                8.5599207906        2.1471601991       15.9134854089
C                8.4127337431        6.2985924133       16.0163382364
C                4.2816391046        2.1070490743       15.7672971826
C                4.2331041785        6.4631405958       15.9553907099
C                0.0147673152        2.1438801594       11.5939557114    0   0   0
C                0.0200697416        6.2277703895       11.5821679336    0   0   0
C                4.2182428542        2.0594943016       11.6100232202    0   0   0
C                4.2117703951        6.2583221129       11.5919858628    0   0   0
C                2.1713130363        2.0860319016        9.4919958919    0   0   0
C                2.1164500536        6.2753611976        9.5156635851    0   0   0
C                6.2203151227        2.0809934926        9.4961719556    0   0   0
C                6.2861737462        6.2618311600        9.5257047400    0   0   0
C                2.1194409158        2.0577799131       13.7313208489
C                2.1065532753        6.2881174405       13.7626022033
C                6.2456816680        2.0519255367       13.6922163651
C                6.2956709011        6.2420171380       13.7323880817



     Writing config-only to output data dir ./tmp/hec3_CrTiV_f100_CO_clean.save/ :
     XML data file
     NEW-OLD atomic charge density approx. for the potential

     Check: negative core charge=   -0.000005

     negative rho (up, down):  3.489E-02 0.000E+00

     total cpu time spent up to now is     9617.2 secs

     Self-consistent Calculation

     iteration #  1     ecut=    60.00 Ry     beta= 0.30
     Davidson diagonalization with overlap
     ethr =  1.00E-06,  avg # of iterations =  5.0

     negative rho (up, down):  3.490E-02 0.000E+00

     total cpu time spent up to now is     9626.4 secs

     total energy              =   -5283.70975647 Ry
     estimated scf accuracy    <       0.00120325 Ry

     iteration #  2     ecut=    60.00 Ry     beta= 0.30
     Davidson diagonalization with overlap
     ethr =  2.21E-07,  avg # of iterations =  6.0

     negative rho (up, down):  3.489E-02 0.000E+00

     total cpu time spent up to now is     9635.0 secs

     total energy              =   -5283.70841036 Ry
     estimated scf accuracy    <       0.05408912 Ry

     iteration #  3     ecut=    60.00 Ry     beta= 0.30
     Davidson diagonalization with overlap
     ethr =  2.21E-07,  avg # of iterations = 15.0

     negative rho (up, down):  3.490E-02 0.000E+00

     total cpu time spent up to now is     9647.5 secs

     total energy              =   -5283.70973014 Ry
     estimated scf accuracy    <       0.02098344 Ry

     iteration #  4     ecut=    60.00 Ry     beta= 0.30
     Davidson diagonalization with overlap
     ethr =  2.21E-07,  avg # of iterations =  5.0

     negative rho (up, down):  3.490E-02 0.000E+00

     total cpu time spent up to now is     9655.5 secs

     total energy              =   -5283.71003557 Ry
     estimated scf accuracy    <       0.00752416 Ry

     iteration #  5     ecut=    60.00 Ry     beta= 0.30
     Davidson diagonalization with overlap
     ethr =  2.21E-07,  avg # of iterations =  2.0

     negative rho (up, down):  3.490E-02 0.000E+00

     total cpu time spent up to now is     9662.7 secs

     total energy              =   -5283.71017738 Ry
     estimated scf accuracy    <       0.00107569 Ry

     iteration #  6     ecut=    60.00 Ry     beta= 0.30
     Davidson diagonalization with overlap
     ethr =  1.98E-07,  avg # of iterations =  1.0

     negative rho (up, down):  3.490E-02 0.000E+00

     total cpu time spent up to now is     9669.0 secs

     total energy              =   -5283.71019981 Ry
     estimated scf accuracy    <       0.00079131 Ry

     iteration #  7     ecut=    60.00 Ry     beta= 0.30
     Davidson diagonalization with overlap
     ethr =  1.45E-07,  avg # of iterations =  2.0

     negative rho (up, down):  3.490E-02 0.000E+00

     total cpu time spent up to now is     9675.5 secs

     total energy              =   -5283.71021946 Ry
     estimated scf accuracy    <       0.00035485 Ry

     iteration #  8     ecut=    60.00 Ry     beta= 0.30
     Davidson diagonalization with overlap
     ethr =  6.52E-08,  avg # of iterations =  2.0

     negative rho (up, down):  3.490E-02 0.000E+00

     total cpu time spent up to now is     9682.1 secs

     total energy              =   -5283.71022405 Ry
     estimated scf accuracy    <       0.00026535 Ry

     iteration #  9     ecut=    60.00 Ry     beta= 0.30
     Davidson diagonalization with overlap
     ethr =  4.88E-08,  avg # of iterations =  1.0

     negative rho (up, down):  3.490E-02 0.000E+00

     total cpu time spent up to now is     9688.3 secs

     total energy              =   -5283.71023060 Ry
     estimated scf accuracy    <       0.00013384 Ry

     iteration # 10     ecut=    60.00 Ry     beta= 0.30
     Davidson diagonalization with overlap
     ethr =  2.46E-08,  avg # of iterations =  2.0

     negative rho (up, down):  3.490E-02 0.000E+00

     total cpu time spent up to now is     9694.9 secs

     total energy              =   -5283.71023438 Ry
     estimated scf accuracy    <       0.00002256 Ry

     iteration # 11     ecut=    60.00 Ry     beta= 0.30
     Davidson diagonalization with overlap
     ethr =  4.15E-09,  avg # of iterations =  6.0

     negative rho (up, down):  3.490E-02 0.000E+00

     total cpu time spent up to now is     9703.5 secs

     total energy              =   -5283.71023387 Ry
     estimated scf accuracy    <       0.00006582 Ry

     iteration # 12     ecut=    60.00 Ry     beta= 0.30
     Davidson diagonalization with overlap
     ethr =  4.15E-09,  avg # of iterations =  4.0

     negative rho (up, down):  3.490E-02 0.000E+00

     total cpu time spent up to now is     9710.8 secs

     total energy              =   -5283.71023521 Ry
     estimated scf accuracy    <       0.00002468 Ry

     iteration # 13     ecut=    60.00 Ry     beta= 0.30
     Davidson diagonalization with overlap
     ethr =  4.15E-09,  avg # of iterations =  5.0

     negative rho (up, down):  3.490E-02 0.000E+00

     total cpu time spent up to now is     9718.6 secs

     total energy              =   -5283.71023318 Ry
     estimated scf accuracy    <       0.00020116 Ry

     iteration # 14     ecut=    60.00 Ry     beta= 0.30
     Davidson diagonalization with overlap
     ethr =  4.15E-09,  avg # of iterations =  2.0

     negative rho (up, down):  3.490E-02 0.000E+00

     total cpu time spent up to now is     9725.3 secs

     total energy              =   -5283.71023677 Ry
     estimated scf accuracy    <       0.00000705 Ry

     iteration # 15     ecut=    60.00 Ry     beta= 0.30
     Davidson diagonalization with overlap
     ethr =  1.30E-09,  avg # of iterations =  5.0

     negative rho (up, down):  3.490E-02 0.000E+00

     total cpu time spent up to now is     9733.0 secs

     total energy              =   -5283.71023695 Ry
     estimated scf accuracy    <       0.00000564 Ry

     iteration # 16     ecut=    60.00 Ry     beta= 0.30
     Davidson diagonalization with overlap
     ethr =  1.04E-09,  avg # of iterations =  2.0

     negative rho (up, down):  3.490E-02 0.000E+00

     total cpu time spent up to now is     9739.8 secs

     total energy              =   -5283.71023704 Ry
     estimated scf accuracy    <       0.00000459 Ry

     iteration # 17     ecut=    60.00 Ry     beta= 0.30
     Davidson diagonalization with overlap
     ethr =  8.44E-10,  avg # of iterations =  2.0

     negative rho (up, down):  3.490E-02 0.000E+00

     total cpu time spent up to now is     9746.2 secs

     total energy              =   -5283.71023704 Ry
     estimated scf accuracy    <       0.00001235 Ry

     iteration # 18     ecut=    60.00 Ry     beta= 0.30
     Davidson diagonalization with overlap
     ethr =  8.44E-10,  avg # of iterations =  1.0

     negative rho (up, down):  3.490E-02 0.000E+00

     total cpu time spent up to now is     9752.5 secs

     total energy              =   -5283.71023722 Ry
     estimated scf accuracy    <       0.00000173 Ry

     iteration # 19     ecut=    60.00 Ry     beta= 0.30
     Davidson diagonalization with overlap
     ethr =  3.18E-10,  avg # of iterations =  2.0

     negative rho (up, down):  3.490E-02 0.000E+00

     total cpu time spent up to now is     9759.2 secs

     total energy              =   -5283.71023720 Ry
     estimated scf accuracy    <       0.00000313 Ry

     iteration # 20     ecut=    60.00 Ry     beta= 0.30
     Davidson diagonalization with overlap
     ethr =  3.18E-10,  avg # of iterations =  2.0

     negative rho (up, down):  3.490E-02 0.000E+00

     total cpu time spent up to now is     9765.8 secs

     total energy              =   -5283.71023729 Ry
     estimated scf accuracy    <       0.00000110 Ry

     iteration # 21     ecut=    60.00 Ry     beta= 0.30
     Davidson diagonalization with overlap
     ethr =  2.03E-10,  avg # of iterations =  2.0

     negative rho (up, down):  3.490E-02 0.000E+00

     total cpu time spent up to now is     9772.3 secs

     total energy              =   -5283.71023730 Ry
     estimated scf accuracy    <       0.00000098 Ry

     iteration # 22     ecut=    60.00 Ry     beta= 0.30
     Davidson diagonalization with overlap
     ethr =  1.80E-10,  avg # of iterations =  1.0

     negative rho (up, down):  3.490E-02 0.000E+00

     total cpu time spent up to now is     9778.5 secs

     total energy              =   -5283.71023733 Ry
     estimated scf accuracy    <       0.00000031 Ry

     iteration # 23     ecut=    60.00 Ry     beta= 0.30
     Davidson diagonalization with overlap
     ethr =  5.72E-11,  avg # of iterations =  2.0

     negative rho (up, down):  3.490E-02 0.000E+00

     total cpu time spent up to now is     9785.2 secs

     total energy              =   -5283.71023731 Ry
     estimated scf accuracy    <       0.00000208 Ry

     iteration # 24     ecut=    60.00 Ry     beta= 0.30
     Davidson diagonalization with overlap
     ethr =  5.72E-11,  avg # of iterations =  1.0

     negative rho (up, down):  3.490E-02 0.000E+00

     total cpu time spent up to now is     9791.6 secs

     total energy              =   -5283.71023734 Ry
     estimated scf accuracy    <       0.00000012 Ry

     iteration # 25     ecut=    60.00 Ry     beta= 0.30
     Davidson diagonalization with overlap
     ethr =  2.13E-11,  avg # of iterations =  6.0

     negative rho (up, down):  3.490E-02 0.000E+00

     total cpu time spent up to now is     9799.7 secs

     total energy              =   -5283.71023732 Ry
     estimated scf accuracy    <       0.00000166 Ry

     iteration # 26     ecut=    60.00 Ry     beta= 0.30
     Davidson diagonalization with overlap
     ethr =  2.13E-11,  avg # of iterations =  5.0

     negative rho (up, down):  3.490E-02 0.000E+00

     total cpu time spent up to now is     9807.5 secs

     total energy              =   -5283.71023735 Ry
     estimated scf accuracy    <       0.00000006 Ry

     iteration # 27     ecut=    60.00 Ry     beta= 0.30
     Davidson diagonalization with overlap
     ethr =  1.15E-11,  avg # of iterations =  5.0

     negative rho (up, down):  3.490E-02 0.000E+00

     total cpu time spent up to now is     9815.1 secs

     total energy              =   -5283.71023736 Ry
     estimated scf accuracy    <       0.00000004 Ry

     iteration # 28     ecut=    60.00 Ry     beta= 0.30
     Davidson diagonalization with overlap
     ethr =  7.03E-12,  avg # of iterations =  2.0

     negative rho (up, down):  3.490E-02 0.000E+00

     total cpu time spent up to now is     9821.8 secs

     total energy              =   -5283.71023735 Ry
     estimated scf accuracy    <       0.00000009 Ry

     iteration # 29     ecut=    60.00 Ry     beta= 0.30
     Davidson diagonalization with overlap
     ethr =  7.03E-12,  avg # of iterations =  2.0

     negative rho (up, down):  3.490E-02 0.000E+00

     total cpu time spent up to now is     9828.9 secs

     total energy              =   -5283.71023735 Ry
     estimated scf accuracy    <       0.00000004 Ry

     iteration # 30     ecut=    60.00 Ry     beta= 0.30
     Davidson diagonalization with overlap
     ethr =  7.03E-12,  avg # of iterations =  2.0

     negative rho (up, down):  3.490E-02 0.000E+00

     total cpu time spent up to now is     9835.6 secs

     total energy              =   -5283.71023735 Ry
     estimated scf accuracy    <       0.00000009 Ry

     iteration # 31     ecut=    60.00 Ry     beta= 0.30
     Davidson diagonalization with overlap
     ethr =  7.03E-12,  avg # of iterations =  1.0

     negative rho (up, down):  3.490E-02 0.000E+00

     total cpu time spent up to now is     9847.6 secs

     total energy              =   -5283.71023736 Ry
     estimated scf accuracy    <       0.00000002 Ry

     iteration # 32     ecut=    60.00 Ry     beta= 0.30
     Davidson diagonalization with overlap
     ethr =  3.69E-12,  avg # of iterations =  1.0

     negative rho (up, down):  3.490E-02 0.000E+00

     total cpu time spent up to now is     9854.4 secs

     total energy              =   -5283.71023736 Ry
     estimated scf accuracy    <          4.4E-09 Ry

     iteration # 33     ecut=    60.00 Ry     beta= 0.30
     Davidson diagonalization with overlap
     ethr =  8.11E-13,  avg # of iterations =  2.0

     negative rho (up, down):  3.490E-02 0.000E+00

     total cpu time spent up to now is     9861.6 secs

     total energy              =   -5283.71023736 Ry
     estimated scf accuracy    <          7.1E-09 Ry

     iteration # 34     ecut=    60.00 Ry     beta= 0.30
     Davidson diagonalization with overlap
     ethr =  8.11E-13,  avg # of iterations =  5.0

     negative rho (up, down):  3.490E-02 0.000E+00

     total cpu time spent up to now is     9872.2 secs

     total energy              =   -5283.71023736 Ry
     estimated scf accuracy    <       0.00000003 Ry

     iteration # 35     ecut=    60.00 Ry     beta= 0.30
     Davidson diagonalization with overlap
     ethr =  8.11E-13,  avg # of iterations =  5.0

     negative rho (up, down):  3.490E-02 0.000E+00

     total cpu time spent up to now is     9881.3 secs

     total energy              =   -5283.71023736 Ry
     estimated scf accuracy    <          4.5E-09 Ry

     iteration # 36     ecut=    60.00 Ry     beta= 0.30
     Davidson diagonalization with overlap
     ethr =  8.11E-13,  avg # of iterations =  5.0

     negative rho (up, down):  3.490E-02 0.000E+00

     total cpu time spent up to now is     9889.4 secs

     total energy              =   -5283.71023736 Ry
     estimated scf accuracy    <          5.7E-09 Ry

     iteration # 37     ecut=    60.00 Ry     beta= 0.30
     Davidson diagonalization with overlap
     ethr =  8.11E-13,  avg # of iterations =  1.0

     negative rho (up, down):  3.490E-02 0.000E+00

     total cpu time spent up to now is     9896.1 secs

     total energy              =   -5283.71023736 Ry
     estimated scf accuracy    <          2.8E-09 Ry

     iteration # 38     ecut=    60.00 Ry     beta= 0.30
     Davidson diagonalization with overlap
     ethr =  5.11E-13,  avg # of iterations =  2.0

     negative rho (up, down):  3.490E-02 0.000E+00

     total cpu time spent up to now is     9903.5 secs

     total energy              =   -5283.71023736 Ry
     estimated scf accuracy    <          2.0E-09 Ry

     iteration # 39     ecut=    60.00 Ry     beta= 0.30
     Davidson diagonalization with overlap
     ethr =  3.69E-13,  avg # of iterations =  1.0

     negative rho (up, down):  3.490E-02 0.000E+00

     total cpu time spent up to now is     9909.8 secs

     total energy              =   -5283.71023736 Ry
     estimated scf accuracy    <          3.7E-09 Ry

     iteration # 40     ecut=    60.00 Ry     beta= 0.30
     Davidson diagonalization with overlap
     ethr =  3.69E-13,  avg # of iterations =  1.0

     negative rho (up, down):  3.490E-02 0.000E+00

     total cpu time spent up to now is     9915.9 secs

     End of self-consistent calculation

          k = 0.0000 0.0000 0.0000 ( 46961 PWs)   bands (ev):

   -69.6332 -69.6105 -69.5795 -69.5584 -69.5573 -69.5529 -69.5407 -69.5361
   -69.5165 -69.4901 -69.3134 -62.1493 -62.1285 -62.1260 -62.0827 -62.0739
   -61.9997 -61.9966 -61.9868 -61.8468 -61.7892 -54.3958 -54.3664 -54.2679
   -54.1155 -54.1062 -54.0872 -54.0649 -54.0392 -54.0167 -54.0006 -53.9407
   -41.0558 -41.0495 -41.0337 -41.0281 -41.0190 -41.0099 -41.0029 -40.9742
   -40.9689 -40.9615 -40.9526 -40.9463 -40.9380 -40.9332 -40.9312 -40.9091
   -40.9025 -40.8981 -40.8907 -40.8747 -40.8724 -40.8635 -40.8610 -40.8595
   -40.8470 -40.8360 -40.8249 -40.8210 -40.8027 -40.7912 -40.7595 -40.6677
   -40.5319 -36.1131 -36.0837 -36.0609 -36.0560 -36.0456 -36.0385 -36.0266
   -35.9891 -35.9808 -35.9760 -35.9592 -35.9540 -35.9434 -35.9225 -35.9184
   -35.9112 -35.9017 -35.8890 -35.8726 -35.8506 -35.8467 -35.8383 -35.7836
   -35.7730 -35.7534 -35.7170 -35.6780 -35.6588 -35.6438 -35.6107 -30.8305
   -30.7794 -30.6898 -30.6653 -30.6379 -30.6249 -30.6229 -30.6149 -30.5805
   -30.5552 -30.5297 -30.5278 -30.5192 -30.4921 -30.4827 -30.4744 -30.4714
   -30.4619 -30.4298 -30.4140 -30.4045 -30.3830 -30.3468 -30.3356 -30.3127
   -30.3057 -30.2928 -30.2633 -30.2513 -30.2260 -30.1871 -30.1816 -30.1429
   -10.7990  -9.7587  -9.3210  -9.2587  -9.1402  -9.0309  -8.6626  -8.4555
    -8.4047  -8.3820  -8.3380  -8.2369  -8.2155  -8.1132  -8.0575  -7.8665
    -7.7995  -7.7697  -7.6508  -7.5958  -7.5525  -7.5337  -7.4701  -7.4577
    -7.4080  -7.3669  -7.2124  -7.1331  -6.9848  -6.9401  -6.7648  -6.4932
    -4.0495  -3.9844  -3.9358  -3.8085  -3.0826  -2.9411  -2.7773  -2.7309
    -2.7110  -2.6589  -2.6338  -2.5610  -2.5051  -2.4472  -2.4321  -2.3101
    -2.1452  -2.1278  -2.0640  -1.9122  -1.8988  -1.8757  -1.8308  -1.7699
    -1.6866  -1.6073  -1.5548  -1.5121  -1.4822  -1.4712  -1.4305  -1.4211
    -1.4189  -1.4081  -1.4015  -1.3535  -1.3493  -1.3299  -1.3047  -1.2550
    -1.2198  -1.1714  -1.1565  -1.0995  -1.0532  -1.0224  -0.9930  -0.9596
    -0.9480  -0.9011  -0.8685  -0.8404  -0.8008  -0.7618  -0.7425  -0.7274
    -0.6977  -0.6800  -0.6634  -0.6363  -0.6277  -0.5149  -0.4870  -0.3998
    -0.3620  -0.3272  -0.2710  -0.2433  -0.2059  -0.1575  -0.1168  -0.1014
    -0.0762  -0.0230   0.0132   0.0308   0.0702   0.1965   0.2876   0.3512
     0.3810   0.4650   0.5656   0.6347   0.6394   0.7186   0.7737   0.8976
     0.9512   0.9716   1.0659   1.1628   1.2304   1.2643   1.3356   1.3504
     1.4671   1.5733   1.6393   1.7007   1.7277   1.8665   1.9133   2.0916
     2.1540   2.5744   2.6140   2.6759   2.7504   2.8175   2.8362   2.8826
     2.9615   3.0331   3.0342   3.0557   3.0841   3.1589   3.1638   3.1989
     3.2331   3.2462   3.2830   3.3106   3.3334   3.3526   3.3625   3.4128
     3.4384   3.4436   3.5146   3.5322   3.5383   3.5762   3.5967   3.6408
     3.6950   3.7702   3.8003   3.8401   3.8685   3.8853   3.9257   3.9618
     3.9735   4.0223   4.0400   4.0647   4.0935   4.1213   4.1790   4.1906
     4.2173   4.2469   4.2701   4.3697   4.4000   4.4632   4.4708   4.5129
     4.5304   4.5768   4.5900   4.6152   4.6978   4.7220

     the Fermi energy is     2.9273 ev

!    total energy              =   -5283.71023736 Ry
     estimated scf accuracy    <          8.7E-10 Ry
     smearing contrib. (-TS)   =      -0.03593805 Ry
     internal energy E=F+TS    =   -5283.67429931 Ry

     The total energy is F=E-TS. E is the sum of the following terms:
     one-electron contribution =  -55963.60886088 Ry
     hartree contribution      =   28005.57218912 Ry
     xc contribution           =    -787.68872342 Ry
     ewald contribution        =   23659.65582972 Ry
     one-center paw contrib.   =    -197.60473386 Ry

     convergence has been achieved in  40 iterations

     negative rho (up, down):  3.490E-02 0.000E+00

     Forces acting on atoms (cartesian axes, Ry/au):

     atom    1 type  1   force =     0.00075185   -0.00130592    0.00285373
     atom    2 type  1   force =    -0.00677198   -0.00497444    0.00296309
     atom    3 type  1   force =    -0.00006726   -0.00095486    0.00007429
     atom    4 type  1   force =     0.00076672   -0.01646970    0.03056581
     atom    5 type  1   force =    -0.00444931    0.01304548    0.00165626
     atom    6 type  1   force =     0.00920140   -0.00240053    0.02768149
     atom    7 type  1   force =     0.00028166    0.00003552    0.00016930
     atom    8 type  1   force =    -0.00034909    0.00072251   -0.00046608
     atom    9 type  1   force =     0.00027452    0.00058560   -0.00134296
     atom   10 type  1   force =    -0.00031034    0.00021737    0.00077358
     atom   11 type  1   force =     0.00048834    0.00059755    0.00069158
     atom   12 type  2   force =     0.00003045   -0.00028764    0.00187641
     atom   13 type  2   force =     0.00032499    0.00046210   -0.00044808
     atom   14 type  2   force =     0.02114711   -0.00495022    0.00774997
     atom   15 type  2   force =    -0.01078188    0.00213641    0.11306042
     atom   16 type  2   force =     0.00711027   -0.00106150    0.09483591
     atom   17 type  2   force =     0.00019636    0.00036439   -0.00014622
     atom   18 type  2   force =     0.00137406   -0.00069084   -0.00060149
     atom   19 type  2   force =     0.00022480   -0.00078654   -0.00044951
     atom   20 type  2   force =     0.00414254   -0.00885474   -0.01129951
     atom   21 type  2   force =     0.00251115    0.02027860   -0.01247809
     atom   22 type  3   force =    -0.00016693   -0.00167879    0.00177392
     atom   23 type  3   force =    -0.02238623   -0.01274531    0.00526844
     atom   24 type  3   force =     0.02457651    0.02171479   -0.01870537
     atom   25 type  3   force =     0.01447599   -0.01436454    0.06691518
     atom   26 type  3   force =    -0.00418298    0.01103093    0.12502772
     atom   27 type  3   force =    -0.00068974    0.00159300   -0.00116396
     atom   28 type  3   force =    -0.00986370   -0.00055672    0.03101669
     atom   29 type  3   force =     0.00099825   -0.00044921    0.00057923
     atom   30 type  3   force =    -0.00105569    0.00014162    0.00180717
     atom   31 type  3   force =     0.00959636   -0.00130100   -0.01943151
     atom   32 type  3   force =    -0.01194743   -0.00371356   -0.00905700
     atom   33 type  4   force =     0.00238491   -0.00746887   -0.03411334
     atom   34 type  4   force =     0.00954469    0.01250647   -0.00369053
     atom   35 type  4   force =    -0.00257987   -0.01691062   -0.01939884
     atom   36 type  4   force =     0.00135767    0.01103419   -0.03372063
     atom   37 type  4   force =    -0.00055379   -0.00012188   -0.00060138
     atom   38 type  4   force =     0.00038679    0.00056728    0.00054631
     atom   39 type  4   force =     0.00059899   -0.00049707    0.00057049
     atom   40 type  4   force =     0.00073389    0.00027912    0.00040313
     atom   41 type  4   force =    -0.00167587   -0.00103853   -0.00161533
     atom   42 type  4   force =     0.00017856    0.00047870   -0.00069114
     atom   43 type  4   force =     0.00077590   -0.00071291    0.00159590
     atom   44 type  4   force =     0.00021700    0.00067003    0.00049256
     atom   45 type  4   force =     0.00474981    0.00623294   -0.03700428
     atom   46 type  4   force =     0.00082249    0.00205455   -0.04324597
     atom   47 type  4   force =    -0.00884811   -0.00277434   -0.01984291
     atom   48 type  4   force =    -0.01418680   -0.00736285   -0.02302115
     atom   49 type  4   force =    -0.00017313    0.00186789    0.00094124
     atom   50 type  4   force =     0.00025811    0.00179967   -0.00055940
     atom   51 type  4   force =    -0.00058248   -0.00006853    0.00020413
     atom   52 type  4   force =    -0.00033176    0.00124819   -0.00054197
     atom   53 type  4   force =    -0.00200716   -0.00545756   -0.03015090
     atom   54 type  4   force =    -0.00556221    0.00737445   -0.03167812
     atom   55 type  4   force =    -0.00045796    0.00444218   -0.03379961
     atom   56 type  4   force =    -0.00143686   -0.00840337   -0.02716246
     atom   57 type  4   force =    -0.01694146    0.00842472   -0.02375633
     atom   58 type  4   force =    -0.00947060   -0.00659417   -0.03122575
     atom   59 type  4   force =     0.01460543    0.01411412   -0.03005319
     atom   60 type  4   force =     0.00214035   -0.01038752   -0.01927881
     atom   61 type  4   force =     0.00105182   -0.00064040   -0.00086789
     atom   62 type  4   force =     0.00001872   -0.00015482   -0.00028821
     atom   63 type  4   force =    -0.00022109   -0.00042456    0.00005250
     atom   64 type  4   force =    -0.00024677    0.00054374   -0.00024856

     Total force =     0.008291     Total SCF correction =     0.000078
     Energy error            =      1.8E-04 Ry
     Gradient error          =      2.9E-03 Ry/Bohr

     number of scf cycles    =  24
     number of bfgs steps    =  23

     energy             old  =   -5283.7100573614 Ry
     energy             new  =   -5283.7102373593 Ry

     CASE: energy            _new < energy            _old

     new trust radius        =       0.0093938948 bohr
     new conv_thr            =       0.0000000010 Ry


ATOMIC_POSITIONS (angstrom)
Ti               8.3474694947       -0.0171026254       15.7780960766
Ti               0.0291331002        8.3621570543       11.5803477355    0   0   0
Ti               2.0917233871        4.2067283486       13.6916172488
Ti               8.3795041056        2.0957563981        9.4724378689    0   0   0
Ti               8.3750099733        6.2687152092        9.4933225157    0   0   0
Ti               4.2170671874        6.2898439467        9.4911460380    0   0   0
Ti               8.3716766267        2.0947240294       13.6550583851
Ti               8.3891181249        6.2654829922       13.6399164121
Ti               4.2044663933        6.2666735258       13.6507165247
Ti               2.0921598441        6.2309350296       15.7969011375
Ti               6.2510945348        6.2450277758       15.7823289211
V                8.3032027867        4.0978992614       15.6854199563
V                4.1591723061        4.0324827338       15.6625187209
V                4.1453105473        4.2119457891       11.5975026988    0   0   0
V                2.1879867013        0.0520231596        9.5054883674    0   0   0
V                2.1522427348        4.1319303501        9.4904675789    0   0   0
V                2.1026681402        8.3569693677       13.6506784923
V                6.3002031563        4.2241811760       13.7341848351
V                4.1931666248        2.1181671278       13.5556951274
V                2.1048639148        6.2714192178       11.5723879270    0   0   0
V                6.3158808164        6.1438819511       11.5700667150    0   0   0
Cr               4.1392273431       -0.0399029103       15.5731449204
Cr               0.1179128009        4.1786640750       11.5195623927    0   0   0
Cr               4.1681598842        8.2577799257       11.6615352591    0   0   0
Cr               6.1999882077        0.1106418811        9.6948923906    0   0   0
Cr               6.2007452456        4.0563627707        9.3394942948    0   0   0
Cr               6.3286733937        8.2758457952       13.5606925423
Cr               4.2149984025        2.0754774019        9.7444374941    0   0   0
Cr               2.0483260416        2.0443819502       15.5946092276
Cr               6.1604133552        1.9650669523       15.5502912082
Cr               2.0054620409        2.1149661174       11.6192682974    0   0   0
Cr               6.3992485267        2.2488278238       11.6549867199    0   0   0
C                8.3671464633        0.0123762133        9.4921945368    0   0   0
C                8.3685510870        4.1683341954        9.4949958325    0   0   0
C                4.2233794382        0.0660683478        9.5137772640    0   0   0
C                4.2071394793        4.1170355077        9.4900603783    0   0   0
C                8.3753087719       -0.0098145388       13.7529130364
C                8.3487275555        4.1641488537       13.7631894032
C                4.2180748560        0.0057408847       13.7098374443
C                4.2103472007        4.1229865313       13.7171694613
C                2.2381419087        0.1291548947       15.8855860690
C                2.1951743201        4.1698442600       15.9304039251
C                6.2839250732        0.1206170679       15.9183094819
C                6.3140974096        4.1522876432       15.9045944890
C                2.1521326937        0.0175132539       11.5903255372    0   0   0
C                2.1078429860        4.1683083653       11.5671868517    0   0   0
C                6.2417937451        0.0188099573       11.6002801854    0   0   0
C                6.3283074126        4.1569384024       11.5682471185    0   0   0
C                8.5619867613        2.1503733014       15.9164287020
C                8.4126915521        6.3003855040       16.0162811472
C                4.2798001924        2.1060744992       15.7683345324
C                4.2324855064        6.4637657721       15.9551969216
C                0.0147673152        2.1438801594       11.5939557114    0   0   0
C                0.0200697416        6.2277703895       11.5821679336    0   0   0
C                4.2182428542        2.0594943016       11.6100232202    0   0   0
C                4.2117703951        6.2583221129       11.5919858628    0   0   0
C                2.1713130363        2.0860319016        9.4919958919    0   0   0
C                2.1164500536        6.2753611976        9.5156635851    0   0   0
C                6.2203151227        2.0809934926        9.4961719556    0   0   0
C                6.2861737462        6.2618311600        9.5257047400    0   0   0
C                2.1205605560        2.0577689204       13.7319556764
C                2.1066121464        6.2877783912       13.7607643515
C                6.2457423834        2.0512611800       13.6944214748
C                6.2950544192        6.2429353703       13.7323772615



     Writing config-only to output data dir ./tmp/hec3_CrTiV_f100_CO_clean.save/ :
     XML data file
     NEW-OLD atomic charge density approx. for the potential

     Check: negative core charge=   -0.000005

     negative rho (up, down):  3.491E-02 0.000E+00

     total cpu time spent up to now is     9925.7 secs

     Self-consistent Calculation

     iteration #  1     ecut=    60.00 Ry     beta= 0.30
     Davidson diagonalization with overlap
     ethr =  1.00E-06,  avg # of iterations =  5.0

     negative rho (up, down):  3.492E-02 0.000E+00

     total cpu time spent up to now is     9934.7 secs

     total energy              =   -5283.70988665 Ry
     estimated scf accuracy    <       0.00112551 Ry

     iteration #  2     ecut=    60.00 Ry     beta= 0.30
     Davidson diagonalization with overlap
     ethr =  2.07E-07,  avg # of iterations = 15.0

     negative rho (up, down):  3.491E-02 0.000E+00

     total cpu time spent up to now is     9947.4 secs

     total energy              =   -5283.70828707 Ry
     estimated scf accuracy    <       0.07203254 Ry

     iteration #  3     ecut=    60.00 Ry     beta= 0.30
     Davidson diagonalization with overlap
     c_bands:  1 eigenvalues not converged
     ethr =  2.07E-07,  avg # of iterations = 20.0

     negative rho (up, down):  3.491E-02 0.000E+00

     total cpu time spent up to now is     9960.1 secs

     total energy              =   -5283.70973598 Ry
     estimated scf accuracy    <       0.03073742 Ry

     iteration #  4     ecut=    60.00 Ry     beta= 0.30
     Davidson diagonalization with overlap
     ethr =  2.07E-07,  avg # of iterations =  5.0

     negative rho (up, down):  3.491E-02 0.000E+00

     total cpu time spent up to now is     9967.9 secs

     total energy              =   -5283.71020297 Ry
     estimated scf accuracy    <       0.00384336 Ry

     iteration #  5     ecut=    60.00 Ry     beta= 0.30
     Davidson diagonalization with overlap
     ethr =  2.07E-07,  avg # of iterations =  2.0

     negative rho (up, down):  3.492E-02 0.000E+00

     total cpu time spent up to now is     9974.5 secs

     total energy              =   -5283.71029704 Ry
     estimated scf accuracy    <       0.00078211 Ry

     iteration #  6     ecut=    60.00 Ry     beta= 0.30
     Davidson diagonalization with overlap
     ethr =  1.44E-07,  avg # of iterations =  2.0

     negative rho (up, down):  3.491E-02 0.000E+00

     total cpu time spent up to now is     9981.3 secs

     total energy              =   -5283.71031545 Ry
     estimated scf accuracy    <       0.00069860 Ry

     iteration #  7     ecut=    60.00 Ry     beta= 0.30
     Davidson diagonalization with overlap
     ethr =  1.28E-07,  avg # of iterations =  2.0

     negative rho (up, down):  3.492E-02 0.000E+00

     total cpu time spent up to now is     9988.0 secs

     total energy              =   -5283.71033294 Ry
     estimated scf accuracy    <       0.00029540 Ry

     iteration #  8     ecut=    60.00 Ry     beta= 0.30
     Davidson diagonalization with overlap
     ethr =  5.43E-08,  avg # of iterations =  2.0

     negative rho (up, down):  3.492E-02 0.000E+00

     total cpu time spent up to now is     9994.9 secs

     total energy              =   -5283.71033668 Ry
     estimated scf accuracy    <       0.00024670 Ry

     iteration #  9     ecut=    60.00 Ry     beta= 0.30
     Davidson diagonalization with overlap
     ethr =  4.53E-08,  avg # of iterations =  1.0

     negative rho (up, down):  3.492E-02 0.000E+00

     total cpu time spent up to now is    10000.7 secs

     total energy              =   -5283.71034305 Ry
     estimated scf accuracy    <       0.00009640 Ry

     iteration # 10     ecut=    60.00 Ry     beta= 0.30
     Davidson diagonalization with overlap
     ethr =  1.77E-08,  avg # of iterations =  2.0

     negative rho (up, down):  3.492E-02 0.000E+00

     total cpu time spent up to now is    10007.4 secs

     total energy              =   -5283.71034574 Ry
     estimated scf accuracy    <       0.00002248 Ry

     iteration # 11     ecut=    60.00 Ry     beta= 0.30
     Davidson diagonalization with overlap
     ethr =  4.13E-09,  avg # of iterations =  6.0

     negative rho (up, down):  3.492E-02 0.000E+00

     total cpu time spent up to now is    10015.2 secs

     total energy              =   -5283.71034583 Ry
     estimated scf accuracy    <       0.00004512 Ry

     iteration # 12     ecut=    60.00 Ry     beta= 0.30
     Davidson diagonalization with overlap
     ethr =  4.13E-09,  avg # of iterations =  2.0

     negative rho (up, down):  3.492E-02 0.000E+00

     total cpu time spent up to now is    10024.9 secs

     total energy              =   -5283.71034661 Ry
     estimated scf accuracy    <       0.00001461 Ry

     iteration # 13     ecut=    60.00 Ry     beta= 0.30
     Davidson diagonalization with overlap
     ethr =  2.68E-09,  avg # of iterations =  6.0

     negative rho (up, down):  3.492E-02 0.000E+00

     total cpu time spent up to now is    10032.5 secs

     total energy              =   -5283.71034183 Ry
     estimated scf accuracy    <       0.00040521 Ry

     iteration # 14     ecut=    60.00 Ry     beta= 0.30
     Davidson diagonalization with overlap
     ethr =  2.68E-09,  avg # of iterations =  5.0

     negative rho (up, down):  3.492E-02 0.000E+00

     total cpu time spent up to now is    10039.9 secs

     total energy              =   -5283.71034792 Ry
     estimated scf accuracy    <       0.00000590 Ry

     iteration # 15     ecut=    60.00 Ry     beta= 0.30
     Davidson diagonalization with overlap
     ethr =  1.09E-09,  avg # of iterations =  5.0

     negative rho (up, down):  3.492E-02 0.000E+00

     total cpu time spent up to now is    10047.2 secs

     total energy              =   -5283.71034809 Ry
     estimated scf accuracy    <       0.00000323 Ry

     iteration # 16     ecut=    60.00 Ry     beta= 0.30
     Davidson diagonalization with overlap
     ethr =  5.93E-10,  avg # of iterations =  2.0

     negative rho (up, down):  3.492E-02 0.000E+00

     total cpu time spent up to now is    10054.2 secs

     total energy              =   -5283.71034816 Ry
     estimated scf accuracy    <       0.00000374 Ry

     iteration # 17     ecut=    60.00 Ry     beta= 0.30
     Davidson diagonalization with overlap
     ethr =  5.93E-10,  avg # of iterations =  2.0

     negative rho (up, down):  3.492E-02 0.000E+00

     total cpu time spent up to now is    10060.9 secs

     total energy              =   -5283.71034814 Ry
     estimated scf accuracy    <       0.00000922 Ry

     iteration # 18     ecut=    60.00 Ry     beta= 0.30
     Davidson diagonalization with overlap
     ethr =  5.93E-10,  avg # of iterations =  1.0

     negative rho (up, down):  3.492E-02 0.000E+00

     total cpu time spent up to now is    10067.3 secs

     total energy              =   -5283.71034830 Ry
     estimated scf accuracy    <       0.00000133 Ry

     iteration # 19     ecut=    60.00 Ry     beta= 0.30
     Davidson diagonalization with overlap
     ethr =  2.45E-10,  avg # of iterations =  2.0

     negative rho (up, down):  3.492E-02 0.000E+00

     total cpu time spent up to now is    10073.8 secs

     total energy              =   -5283.71034828 Ry
     estimated scf accuracy    <       0.00000260 Ry

     iteration # 20     ecut=    60.00 Ry     beta= 0.30
     Davidson diagonalization with overlap
     ethr =  2.45E-10,  avg # of iterations =  1.0

     negative rho (up, down):  3.492E-02 0.000E+00

     total cpu time spent up to now is    10079.8 secs

     total energy              =   -5283.71034834 Ry
     estimated scf accuracy    <       0.00000091 Ry

     iteration # 21     ecut=    60.00 Ry     beta= 0.30
     Davidson diagonalization with overlap
     ethr =  1.67E-10,  avg # of iterations =  2.0

     negative rho (up, down):  3.492E-02 0.000E+00

     total cpu time spent up to now is    10086.6 secs

     total energy              =   -5283.71034836 Ry
     estimated scf accuracy    <       0.00000084 Ry

     iteration # 22     ecut=    60.00 Ry     beta= 0.30
     Davidson diagonalization with overlap
     ethr =  1.54E-10,  avg # of iterations =  1.0

     negative rho (up, down):  3.492E-02 0.000E+00

     total cpu time spent up to now is    10092.8 secs

     total energy              =   -5283.71034839 Ry
     estimated scf accuracy    <       0.00000012 Ry

     iteration # 23     ecut=    60.00 Ry     beta= 0.30
     Davidson diagonalization with overlap
     ethr =  2.20E-11,  avg # of iterations =  2.0

     negative rho (up, down):  3.492E-02 0.000E+00

     total cpu time spent up to now is    10099.5 secs

     total energy              =   -5283.71034839 Ry
     estimated scf accuracy    <       0.00000029 Ry

     iteration # 24     ecut=    60.00 Ry     beta= 0.30
     Davidson diagonalization with overlap
     ethr =  2.20E-11,  avg # of iterations =  1.0

     negative rho (up, down):  3.492E-02 0.000E+00

     total cpu time spent up to now is    10105.6 secs

     total energy              =   -5283.71034839 Ry
     estimated scf accuracy    <       0.00000008 Ry

     iteration # 25     ecut=    60.00 Ry     beta= 0.30
     Davidson diagonalization with overlap
     ethr =  1.42E-11,  avg # of iterations =  2.0

     negative rho (up, down):  3.492E-02 0.000E+00

     total cpu time spent up to now is    10112.2 secs

     total energy              =   -5283.71034839 Ry
     estimated scf accuracy    <       0.00000013 Ry

     iteration # 26     ecut=    60.00 Ry     beta= 0.30
     Davidson diagonalization with overlap
     ethr =  1.42E-11,  avg # of iterations =  1.0

     negative rho (up, down):  3.492E-02 0.000E+00

     total cpu time spent up to now is    10118.6 secs

     total energy              =   -5283.71034840 Ry
     estimated scf accuracy    <       0.00000002 Ry

     iteration # 27     ecut=    60.00 Ry     beta= 0.30
     Davidson diagonalization with overlap
     ethr =  3.34E-12,  avg # of iterations =  5.0

     negative rho (up, down):  3.492E-02 0.000E+00

     total cpu time spent up to now is    10126.2 secs

     total energy              =   -5283.71034840 Ry
     estimated scf accuracy    <       0.00000004 Ry

     iteration # 28     ecut=    60.00 Ry     beta= 0.30
     Davidson diagonalization with overlap
     ethr =  3.34E-12,  avg # of iterations =  2.0

     negative rho (up, down):  3.492E-02 0.000E+00

     total cpu time spent up to now is    10132.8 secs

     total energy              =   -5283.71034840 Ry
     estimated scf accuracy    <       0.00000002 Ry

     iteration # 29     ecut=    60.00 Ry     beta= 0.30
     Davidson diagonalization with overlap
     ethr =  3.34E-12,  avg # of iterations =  1.0

     negative rho (up, down):  3.492E-02 0.000E+00

     total cpu time spent up to now is    10139.0 secs

     total energy              =   -5283.71034840 Ry
     estimated scf accuracy    <       0.00000001 Ry

     iteration # 30     ecut=    60.00 Ry     beta= 0.30
     Davidson diagonalization with overlap
     ethr =  2.68E-12,  avg # of iterations =  2.0

     negative rho (up, down):  3.492E-02 0.000E+00

     total cpu time spent up to now is    10145.7 secs

     total energy              =   -5283.71034840 Ry
     estimated scf accuracy    <       0.00000003 Ry

     iteration # 31     ecut=    60.00 Ry     beta= 0.30
     Davidson diagonalization with overlap
     ethr =  2.68E-12,  avg # of iterations =  1.0

     negative rho (up, down):  3.492E-02 0.000E+00

     total cpu time spent up to now is    10151.6 secs

     total energy              =   -5283.71034840 Ry
     estimated scf accuracy    <          6.4E-09 Ry

     iteration # 32     ecut=    60.00 Ry     beta= 0.30
     Davidson diagonalization with overlap
     ethr =  1.18E-12,  avg # of iterations =  1.0

     negative rho (up, down):  3.492E-02 0.000E+00

     total cpu time spent up to now is    10157.8 secs

     total energy              =   -5283.71034840 Ry
     estimated scf accuracy    <          4.2E-09 Ry

     iteration # 33     ecut=    60.00 Ry     beta= 0.30
     Davidson diagonalization with overlap
     ethr =  7.77E-13,  avg # of iterations =  1.0

     negative rho (up, down):  3.492E-02 0.000E+00

     total cpu time spent up to now is    10164.0 secs

     total energy              =   -5283.71034840 Ry
     estimated scf accuracy    <          7.0E-09 Ry

     iteration # 34     ecut=    60.00 Ry     beta= 0.30
     Davidson diagonalization with overlap
     ethr =  7.77E-13,  avg # of iterations =  1.0

     negative rho (up, down):  3.492E-02 0.000E+00

     total cpu time spent up to now is    10170.0 secs

     total energy              =   -5283.71034840 Ry
     estimated scf accuracy    <          6.9E-09 Ry

     iteration # 35     ecut=    60.00 Ry     beta= 0.30
     Davidson diagonalization with overlap
     ethr =  7.77E-13,  avg # of iterations =  1.0

     negative rho (up, down):  3.492E-02 0.000E+00

     total cpu time spent up to now is    10176.2 secs

     total energy              =   -5283.71034840 Ry
     estimated scf accuracy    <          3.8E-09 Ry

     iteration # 36     ecut=    60.00 Ry     beta= 0.30
     Davidson diagonalization with overlap
     ethr =  6.89E-13,  avg # of iterations =  1.0

     negative rho (up, down):  3.492E-02 0.000E+00

     total cpu time spent up to now is    10182.1 secs

     total energy              =   -5283.71034840 Ry
     estimated scf accuracy    <          1.8E-09 Ry

     iteration # 37     ecut=    60.00 Ry     beta= 0.30
     Davidson diagonalization with overlap
     ethr =  3.37E-13,  avg # of iterations =  1.0

     negative rho (up, down):  3.492E-02 0.000E+00

     total cpu time spent up to now is    10188.1 secs

     End of self-consistent calculation

          k = 0.0000 0.0000 0.0000 ( 46961 PWs)   bands (ev):

   -69.6319 -69.6108 -69.5794 -69.5579 -69.5564 -69.5511 -69.5394 -69.5356
   -69.5153 -69.4898 -69.3131 -62.1484 -62.1280 -62.1252 -62.0827 -62.0737
   -61.9996 -61.9962 -61.9870 -61.8469 -61.7876 -54.3950 -54.3663 -54.2670
   -54.1140 -54.1062 -54.0875 -54.0647 -54.0388 -54.0157 -53.9997 -53.9394
   -41.0557 -41.0495 -41.0324 -41.0271 -41.0179 -41.0093 -41.0020 -40.9731
   -40.9680 -40.9595 -40.9519 -40.9452 -40.9374 -40.9321 -40.9307 -40.9081
   -40.9022 -40.8976 -40.8901 -40.8741 -40.8716 -40.8625 -40.8605 -40.8584
   -40.8457 -40.8357 -40.8238 -40.8208 -40.8019 -40.7905 -40.7592 -40.6674
   -40.5316 -36.1126 -36.0830 -36.0603 -36.0552 -36.0448 -36.0379 -36.0258
   -35.9886 -35.9803 -35.9757 -35.9592 -35.9540 -35.9430 -35.9220 -35.9179
   -35.9106 -35.9014 -35.8887 -35.8723 -35.8502 -35.8462 -35.8378 -35.7838
   -35.7727 -35.7534 -35.7169 -35.6760 -35.6567 -35.6435 -35.6104 -30.8297
   -30.7794 -30.6889 -30.6646 -30.6371 -30.6244 -30.6219 -30.6147 -30.5797
   -30.5544 -30.5289 -30.5268 -30.5185 -30.4916 -30.4819 -30.4741 -30.4709
   -30.4615 -30.4287 -30.4134 -30.4043 -30.3826 -30.3469 -30.3349 -30.3121
   -30.3052 -30.2920 -30.2624 -30.2492 -30.2250 -30.1864 -30.1802 -30.1421
   -10.7976  -9.7577  -9.3197  -9.2578  -9.1390  -9.0295  -8.6620  -8.4536
    -8.4039  -8.3800  -8.3365  -8.2368  -8.2143  -8.1111  -8.0578  -7.8654
    -7.7982  -7.7678  -7.6499  -7.5948  -7.5519  -7.5328  -7.4683  -7.4582
    -7.4071  -7.3632  -7.2089  -7.1317  -6.9841  -6.9392  -6.7614  -6.4926
    -4.0468  -3.9840  -3.9357  -3.8061  -3.0817  -2.9402  -2.7752  -2.7286
    -2.7096  -2.6581  -2.6317  -2.5605  -2.5042  -2.4462  -2.4300  -2.3084
    -2.1433  -2.1259  -2.0623  -1.9108  -1.8975  -1.8753  -1.8299  -1.7684
    -1.6841  -1.6056  -1.5541  -1.5119  -1.4818  -1.4708  -1.4297  -1.4206
    -1.4180  -1.4077  -1.4005  -1.3529  -1.3483  -1.3296  -1.3027  -1.2538
    -1.2190  -1.1691  -1.1553  -1.0984  -1.0532  -1.0199  -0.9914  -0.9574
    -0.9471  -0.8989  -0.8670  -0.8391  -0.8004  -0.7614  -0.7416  -0.7262
    -0.6971  -0.6792  -0.6628  -0.6351  -0.6263  -0.5144  -0.4858  -0.3984
    -0.3595  -0.3254  -0.2709  -0.2433  -0.2047  -0.1558  -0.1163  -0.0992
    -0.0761  -0.0221   0.0136   0.0326   0.0721   0.1978   0.2873   0.3525
     0.3821   0.4657   0.5681   0.6356   0.6413   0.7204   0.7742   0.8973
     0.9508   0.9723   1.0663   1.1628   1.2302   1.2681   1.3388   1.3525
     1.4671   1.5742   1.6397   1.7015   1.7280   1.8681   1.9147   2.0904
     2.1555   2.5742   2.6149   2.6770   2.7511   2.8187   2.8362   2.8829
     2.9618   3.0325   3.0350   3.0559   3.0850   3.1583   3.1654   3.2002
     3.2323   3.2461   3.2826   3.3120   3.3336   3.3534   3.3629   3.4138
     3.4405   3.4455   3.5151   3.5327   3.5404   3.5778   3.5981   3.6410
     3.6966   3.7724   3.8011   3.8421   3.8687   3.8863   3.9263   3.9616
     3.9739   4.0223   4.0411   4.0655   4.0940   4.1213   4.1788   4.1905
     4.2183   4.2477   4.2700   4.3706   4.4012   4.4624   4.4706   4.5122
     4.5314   4.5780   4.5901   4.6167   4.6989   4.7235

     the Fermi energy is     2.9278 ev

!    total energy              =   -5283.71034840 Ry
     estimated scf accuracy    <          4.5E-10 Ry
     smearing contrib. (-TS)   =      -0.03602323 Ry
     internal energy E=F+TS    =   -5283.67432518 Ry

     The total energy is F=E-TS. E is the sum of the following terms:
     one-electron contribution =  -55955.27666125 Ry
     hartree contribution      =   28001.42092455 Ry
     xc contribution           =    -787.68334604 Ry
     ewald contribution        =   23655.46942445 Ry
     one-center paw contrib.   =    -197.60466689 Ry

     convergence has been achieved in  37 iterations

     negative rho (up, down):  3.492E-02 0.000E+00

     Forces acting on atoms (cartesian axes, Ry/au):

     atom    1 type  1   force =     0.00086069    0.00060059    0.00051119
     atom    2 type  1   force =    -0.00668002   -0.00477010    0.00283158
     atom    3 type  1   force =    -0.00010137   -0.00041340    0.00044232
     atom    4 type  1   force =     0.00077433   -0.01646415    0.03054136
     atom    5 type  1   force =    -0.00442358    0.01307138    0.00165220
     atom    6 type  1   force =     0.00919206   -0.00238274    0.02770935
     atom    7 type  1   force =     0.00021493    0.00014134    0.00087813
     atom    8 type  1   force =    -0.00002104    0.00038356   -0.00023806
     atom    9 type  1   force =     0.00003653    0.00030330   -0.00113225
     atom   10 type  1   force =    -0.00134039    0.00064303    0.00065973
     atom   11 type  1   force =     0.00157280    0.00013095    0.00039689
     atom   12 type  2   force =     0.00048815   -0.00067229    0.00006050
     atom   13 type  2   force =    -0.00058166   -0.00052794   -0.00108068
     atom   14 type  2   force =     0.02107332   -0.00513383    0.00781851
     atom   15 type  2   force =    -0.01082205    0.00209378    0.11299867
     atom   16 type  2   force =     0.00715381   -0.00100905    0.09475143
     atom   17 type  2   force =     0.00001701   -0.00001374    0.00080498
     atom   18 type  2   force =     0.00133037   -0.00081310    0.00014423
     atom   19 type  2   force =     0.00032931   -0.00072644   -0.00048909
     atom   20 type  2   force =     0.00425133   -0.00883837   -0.01123426
     atom   21 type  2   force =     0.00245981    0.02027000   -0.01254441
     atom   22 type  3   force =    -0.00015585   -0.00007485    0.00060277
     atom   23 type  3   force =    -0.02242214   -0.01272433    0.00539978
     atom   24 type  3   force =     0.02403252    0.02186745   -0.01900870
     atom   25 type  3   force =     0.01451083   -0.01431044    0.06671931
     atom   26 type  3   force =    -0.00413340    0.01102486    0.12503023
     atom   27 type  3   force =    -0.00029889    0.00161857   -0.00049363
     atom   28 type  3   force =    -0.00982936   -0.00052398    0.03109502
     atom   29 type  3   force =    -0.00021134   -0.00056037   -0.00060871
     atom   30 type  3   force =    -0.00062138    0.00057499    0.00060425
     atom   31 type  3   force =     0.00967872   -0.00121839   -0.01950830
     atom   32 type  3   force =    -0.01193494   -0.00367691   -0.00896404
     atom   33 type  4   force =     0.00237473   -0.00750021   -0.03409652
     atom   34 type  4   force =     0.00954170    0.01248918   -0.00365687
     atom   35 type  4   force =    -0.00257408   -0.01694903   -0.01932839
     atom   36 type  4   force =     0.00132189    0.01106027   -0.03363402
     atom   37 type  4   force =    -0.00037984   -0.00012612    0.00012823
     atom   38 type  4   force =     0.00044603    0.00023697    0.00131576
     atom   39 type  4   force =     0.00073471   -0.00036147    0.00082667
     atom   40 type  4   force =     0.00073061    0.00032400    0.00016276
     atom   41 type  4   force =    -0.00071466   -0.00116551   -0.00048706
     atom   42 type  4   force =     0.00045135    0.00047900   -0.00040960
     atom   43 type  4   force =    -0.00013329   -0.00049741    0.00194409
     atom   44 type  4   force =    -0.00094551    0.00094939    0.00057108
     atom   45 type  4   force =     0.00487010    0.00622812   -0.03725776
     atom   46 type  4   force =     0.00081639    0.00197160   -0.04322275
     atom   47 type  4   force =    -0.00874087   -0.00277302   -0.01985966
     atom   48 type  4   force =    -0.01411400   -0.00735314   -0.02286167
     atom   49 type  4   force =     0.00059569    0.00085307    0.00094246
     atom   50 type  4   force =     0.00043262    0.00081076   -0.00033702
     atom   51 type  4   force =    -0.00030553    0.00027533    0.00048430
     atom   52 type  4   force =    -0.00018996    0.00021835   -0.00022160
     atom   53 type  4   force =    -0.00199414   -0.00536994   -0.02980524
     atom   54 type  4   force =    -0.00563548    0.00739539   -0.03176030
     atom   55 type  4   force =    -0.00039426    0.00440472   -0.03357075
     atom   56 type  4   force =    -0.00142992   -0.00842997   -0.02731534
     atom   57 type  4   force =    -0.01696863    0.00842724   -0.02367875
     atom   58 type  4   force =    -0.00947737   -0.00657662   -0.03135643
     atom   59 type  4   force =     0.01461253    0.01407725   -0.03004017
     atom   60 type  4   force =     0.00214738   -0.01042594   -0.01935791
     atom   61 type  4   force =     0.00069526   -0.00057213   -0.00060347
     atom   62 type  4   force =    -0.00012898   -0.00012412    0.00022687
     atom   63 type  4   force =    -0.00015366   -0.00023778    0.00007394
     atom   64 type  4   force =     0.00011006    0.00039238   -0.00016517

     Total force =     0.006255     Total SCF correction =     0.000047
     Energy error            =      1.1E-04 Ry
     Gradient error          =      1.9E-03 Ry/Bohr

     number of scf cycles    =  25
     number of bfgs steps    =  24

     energy             old  =   -5283.7102373593 Ry
     energy             new  =   -5283.7103484032 Ry

     CASE: energy            _new < energy            _old

     new trust radius        =       0.0063264287 bohr
     new conv_thr            =       0.0000000010 Ry


ATOMIC_POSITIONS (angstrom)
Ti               8.3484430025       -0.0176070090       15.7800042133
Ti               0.0291331002        8.3621570543       11.5803477355    0   0   0
Ti               2.0917527268        4.2061459428       13.6917210280
Ti               8.3795041056        2.0957563981        9.4724378689    0   0   0
Ti               8.3750099733        6.2687152092        9.4933225157    0   0   0
Ti               4.2170671874        6.2898439467        9.4911460380    0   0   0
Ti               8.3718966904        2.0949231723       13.6559343969
Ti               8.3888677544        6.2662870166       13.6396822426
Ti               4.2046226960        6.2669585206       13.6497277618
Ti               2.0918797985        6.2307631027       15.7966782771
Ti               6.2514452903        6.2458340258       15.7827186411
V                8.3031968919        4.0981559106       15.6867507430
V                4.1599775812        4.0330226415       15.6623479773
V                4.1453105473        4.2119457891       11.5975026988    0   0   0
V                2.1879867013        0.0520231596        9.5054883674    0   0   0
V                2.1522427348        4.1319303501        9.4904675789    0   0   0
V                2.1025585522        8.3573510923       13.6504811620
V                6.3015487535        4.2238442442       13.7337128809
V                4.1936684321        2.1176349100       13.5556189027
V                2.1048639148        6.2714192178       11.5723879270    0   0   0
V                6.3158808164        6.1438819511       11.5700667150    0   0   0
Cr               4.1378349418       -0.0413130014       15.5743693016
Cr               0.1179128009        4.1786640750       11.5195623927    0   0   0
Cr               4.1681598842        8.2577799257       11.6615352591    0   0   0
Cr               6.1999882077        0.1106418811        9.6948923906    0   0   0
Cr               6.2007452456        4.0563627707        9.3394942948    0   0   0
Cr               6.3281251154        8.2775105799       13.5586166589
Cr               4.2149984025        2.0754774019        9.7444374941    0   0   0
Cr               2.0497956914        2.0439095171       15.5950498541
Cr               6.1591385475        1.9642835837       15.5525139546
Cr               2.0054620409        2.1149661174       11.6192682974    0   0   0
Cr               6.3992485267        2.2488278238       11.6549867199    0   0   0
C                8.3671464633        0.0123762133        9.4921945368    0   0   0
C                8.3685510870        4.1683341954        9.4949958325    0   0   0
C                4.2233794382        0.0660683478        9.5137772640    0   0   0
C                4.2071394793        4.1170355077        9.4900603783    0   0   0
C                8.3748964721       -0.0095793571       13.7532533254
C                8.3491233244        4.1646396849       13.7641725131
C                4.2185880149        0.0052869764       13.7106869433
C                4.2111562583        4.1231084090       13.7177817488
C                2.2364522566        0.1277362693       15.8835264456
C                2.1963631320        4.1706819018       15.9301621622
C                6.2845402120        0.1205684710       15.9211090163
C                6.3142536833        4.1533792647       15.9057813256
C                2.1521326937        0.0175132539       11.5903255372    0   0   0
C                2.1078429860        4.1683083653       11.5671868517    0   0   0
C                6.2417937451        0.0188099573       11.6002801854    0   0   0
C                6.3283074126        4.1569384024       11.5682471185    0   0   0
C                8.5632818999        2.1524753445       15.9186896328
C                8.4129004522        6.3018612242       16.0163039256
C                4.2786456589        2.1057468929       15.7690837206
C                4.2320709895        6.4642026274       15.9550632247
C                0.0147673152        2.1438801594       11.5939557114    0   0   0
C                0.0200697416        6.2277703895       11.5821679336    0   0   0
C                4.2182428542        2.0594943016       11.6100232202    0   0   0
C                4.2117703951        6.2583221129       11.5919858628    0   0   0
C                2.1713130363        2.0860319016        9.4919958919    0   0   0
C                2.1164500536        6.2753611976        9.5156635851    0   0   0
C                6.2203151227        2.0809934926        9.4961719556    0   0   0
C                6.2861737462        6.2618311600        9.5257047400    0   0   0
C                2.1214997150        2.0574304579       13.7319911607
C                2.1065521775        6.2875344528       13.7600294399
C                6.2457192622        2.0507957287       13.6956508996
C                6.2948604159        6.2435820201       13.7323410550



     Writing config-only to output data dir ./tmp/hec3_CrTiV_f100_CO_clean.save/ :
     XML data file
     NEW-OLD atomic charge density approx. for the potential

     Check: negative core charge=   -0.000005

     negative rho (up, down):  3.497E-02 0.000E+00

     total cpu time spent up to now is    10197.9 secs

     Self-consistent Calculation

     iteration #  1     ecut=    60.00 Ry     beta= 0.30
     Davidson diagonalization with overlap
     ethr =  1.00E-06,  avg # of iterations =  4.0

     Threshold (ethr) on eigenvalues was too large:
     Diagonalizing with lowered threshold

     Davidson diagonalization with overlap
     ethr =  6.18E-08,  avg # of iterations =  2.0

     negative rho (up, down):  3.497E-02 0.000E+00

     total cpu time spent up to now is    10208.6 secs

     total energy              =   -5283.71025801 Ry
     estimated scf accuracy    <       0.00036416 Ry

     iteration #  2     ecut=    60.00 Ry     beta= 0.30
     Davidson diagonalization with overlap
     ethr =  6.69E-08,  avg # of iterations =  6.0

     negative rho (up, down):  3.497E-02 0.000E+00

     total cpu time spent up to now is    10217.3 secs

     total energy              =   -5283.70978303 Ry
     estimated scf accuracy    <       0.02017067 Ry

     iteration #  3     ecut=    60.00 Ry     beta= 0.30
     Davidson diagonalization with overlap
     ethr =  6.69E-08,  avg # of iterations =  6.0

     negative rho (up, down):  3.497E-02 0.000E+00

     total cpu time spent up to now is    10227.8 secs

     total energy              =   -5283.71024542 Ry
     estimated scf accuracy    <       0.00701415 Ry

     iteration #  4     ecut=    60.00 Ry     beta= 0.30
     Davidson diagonalization with overlap
     ethr =  6.69E-08,  avg # of iterations =  5.0

     negative rho (up, down):  3.497E-02 0.000E+00

     total cpu time spent up to now is    10237.0 secs

     total energy              =   -5283.71035104 Ry
     estimated scf accuracy    <       0.00154930 Ry

     iteration #  5     ecut=    60.00 Ry     beta= 0.30
     Davidson diagonalization with overlap
     ethr =  6.69E-08,  avg # of iterations =  2.0

     negative rho (up, down):  3.497E-02 0.000E+00

     total cpu time spent up to now is    10244.0 secs

     total energy              =   -5283.71038413 Ry
     estimated scf accuracy    <       0.00027164 Ry

     iteration #  6     ecut=    60.00 Ry     beta= 0.30
     Davidson diagonalization with overlap
     ethr =  4.99E-08,  avg # of iterations =  2.0

     negative rho (up, down):  3.497E-02 0.000E+00

     total cpu time spent up to now is    10251.0 secs

     total energy              =   -5283.71039122 Ry
     estimated scf accuracy    <       0.00015743 Ry

     iteration #  7     ecut=    60.00 Ry     beta= 0.30
     Davidson diagonalization with overlap
     ethr =  2.89E-08,  avg # of iterations =  2.0

     negative rho (up, down):  3.497E-02 0.000E+00

     total cpu time spent up to now is    10258.1 secs

     total energy              =   -5283.71039541 Ry
     estimated scf accuracy    <       0.00010059 Ry

     iteration #  8     ecut=    60.00 Ry     beta= 0.30
     Davidson diagonalization with overlap
     ethr =  1.85E-08,  avg # of iterations =  2.0

     negative rho (up, down):  3.497E-02 0.000E+00

     total cpu time spent up to now is    10264.8 secs

     total energy              =   -5283.71039604 Ry
     estimated scf accuracy    <       0.00011219 Ry

     iteration #  9     ecut=    60.00 Ry     beta= 0.30
     Davidson diagonalization with overlap
     ethr =  1.85E-08,  avg # of iterations =  1.0

     negative rho (up, down):  3.497E-02 0.000E+00

     total cpu time spent up to now is    10270.9 secs

     total energy              =   -5283.71039856 Ry
     estimated scf accuracy    <       0.00004121 Ry

     iteration # 10     ecut=    60.00 Ry     beta= 0.30
     Davidson diagonalization with overlap
     ethr =  7.58E-09,  avg # of iterations =  2.0

     negative rho (up, down):  3.497E-02 0.000E+00

     total cpu time spent up to now is    10277.9 secs

     total energy              =   -5283.71039958 Ry
     estimated scf accuracy    <       0.00001064 Ry

     iteration # 11     ecut=    60.00 Ry     beta= 0.30
     Davidson diagonalization with overlap
     ethr =  1.96E-09,  avg # of iterations =  2.0

     negative rho (up, down):  3.497E-02 0.000E+00

     total cpu time spent up to now is    10284.8 secs

     total energy              =   -5283.71039981 Ry
     estimated scf accuracy    <       0.00001322 Ry

     iteration # 12     ecut=    60.00 Ry     beta= 0.30
     Davidson diagonalization with overlap
     ethr =  1.96E-09,  avg # of iterations =  2.0

     negative rho (up, down):  3.497E-02 0.000E+00

     total cpu time spent up to now is    10291.3 secs

     total energy              =   -5283.71039984 Ry
     estimated scf accuracy    <       0.00000744 Ry

     iteration # 13     ecut=    60.00 Ry     beta= 0.30
     Davidson diagonalization with overlap
     ethr =  1.37E-09,  avg # of iterations =  5.0

     negative rho (up, down):  3.497E-02 0.000E+00

     total cpu time spent up to now is    10298.9 secs

     total energy              =   -5283.71039870 Ry
     estimated scf accuracy    <       0.00010177 Ry

     iteration # 14     ecut=    60.00 Ry     beta= 0.30
     Davidson diagonalization with overlap
     ethr =  1.37E-09,  avg # of iterations =  5.0

     negative rho (up, down):  3.497E-02 0.000E+00

     total cpu time spent up to now is    10306.1 secs

     total energy              =   -5283.71040038 Ry
     estimated scf accuracy    <       0.00000531 Ry

     iteration # 15     ecut=    60.00 Ry     beta= 0.30
     Davidson diagonalization with overlap
     ethr =  9.76E-10,  avg # of iterations =  2.0

     negative rho (up, down):  3.497E-02 0.000E+00

     total cpu time spent up to now is    10312.6 secs

     total energy              =   -5283.71040047 Ry
     estimated scf accuracy    <       0.00000157 Ry

     iteration # 16     ecut=    60.00 Ry     beta= 0.30
     Davidson diagonalization with overlap
     ethr =  2.89E-10,  avg # of iterations =  5.0

     negative rho (up, down):  3.497E-02 0.000E+00

     total cpu time spent up to now is    10320.0 secs

     total energy              =   -5283.71040051 Ry
     estimated scf accuracy    <       0.00000178 Ry

     iteration # 17     ecut=    60.00 Ry     beta= 0.30
     Davidson diagonalization with overlap
     ethr =  2.89E-10,  avg # of iterations =  2.0

     negative rho (up, down):  3.497E-02 0.000E+00

     total cpu time spent up to now is    10326.7 secs

     total energy              =   -5283.71040054 Ry
     estimated scf accuracy    <       0.00000193 Ry

     iteration # 18     ecut=    60.00 Ry     beta= 0.30
     Davidson diagonalization with overlap
     ethr =  2.89E-10,  avg # of iterations =  1.0

     negative rho (up, down):  3.497E-02 0.000E+00

     total cpu time spent up to now is    10333.1 secs

     total energy              =   -5283.71040057 Ry
     estimated scf accuracy    <       0.00000091 Ry

     iteration # 19     ecut=    60.00 Ry     beta= 0.30
     Davidson diagonalization with overlap
     ethr =  1.67E-10,  avg # of iterations =  1.0

     negative rho (up, down):  3.497E-02 0.000E+00

     total cpu time spent up to now is    10339.4 secs

     total energy              =   -5283.71040056 Ry
     estimated scf accuracy    <       0.00000140 Ry

     iteration # 20     ecut=    60.00 Ry     beta= 0.30
     Davidson diagonalization with overlap
     ethr =  1.67E-10,  avg # of iterations =  1.0

     negative rho (up, down):  3.497E-02 0.000E+00

     total cpu time spent up to now is    10345.3 secs

     total energy              =   -5283.71040059 Ry
     estimated scf accuracy    <       0.00000035 Ry

     iteration # 21     ecut=    60.00 Ry     beta= 0.30
     Davidson diagonalization with overlap
     ethr =  6.35E-11,  avg # of iterations =  2.0

     negative rho (up, down):  3.497E-02 0.000E+00

     total cpu time spent up to now is    10352.1 secs

     total energy              =   -5283.71040060 Ry
     estimated scf accuracy    <       0.00000044 Ry

     iteration # 22     ecut=    60.00 Ry     beta= 0.30
     Davidson diagonalization with overlap
     ethr =  6.35E-11,  avg # of iterations =  1.0

     negative rho (up, down):  3.497E-02 0.000E+00

     total cpu time spent up to now is    10358.4 secs

     total energy              =   -5283.71040061 Ry
     estimated scf accuracy    <       0.00000007 Ry

     iteration # 23     ecut=    60.00 Ry     beta= 0.30
     Davidson diagonalization with overlap
     ethr =  1.37E-11,  avg # of iterations =  2.0

     negative rho (up, down):  3.497E-02 0.000E+00

     total cpu time spent up to now is    10365.2 secs

     total energy              =   -5283.71040061 Ry
     estimated scf accuracy    <       0.00000023 Ry

     iteration # 24     ecut=    60.00 Ry     beta= 0.30
     Davidson diagonalization with overlap
     ethr =  1.37E-11,  avg # of iterations =  1.0

     negative rho (up, down):  3.497E-02 0.000E+00

     total cpu time spent up to now is    10371.2 secs

     total energy              =   -5283.71040061 Ry
     estimated scf accuracy    <       0.00000007 Ry

     iteration # 25     ecut=    60.00 Ry     beta= 0.30
     Davidson diagonalization with overlap
     ethr =  1.23E-11,  avg # of iterations =  2.0

     negative rho (up, down):  3.497E-02 0.000E+00

     total cpu time spent up to now is    10377.7 secs

     total energy              =   -5283.71040061 Ry
     estimated scf accuracy    <       0.00000013 Ry

     iteration # 26     ecut=    60.00 Ry     beta= 0.30
     Davidson diagonalization with overlap
     ethr =  1.23E-11,  avg # of iterations =  1.0

     negative rho (up, down):  3.497E-02 0.000E+00

     total cpu time spent up to now is    10385.3 secs

     total energy              =   -5283.71040061 Ry
     estimated scf accuracy    <       0.00000004 Ry

     iteration # 27     ecut=    60.00 Ry     beta= 0.30
     Davidson diagonalization with overlap
     ethr =  7.73E-12,  avg # of iterations =  1.0

     negative rho (up, down):  3.497E-02 0.000E+00

     total cpu time spent up to now is    10391.2 secs

     total energy              =   -5283.71040062 Ry
     estimated scf accuracy    <       0.00000006 Ry

     iteration # 28     ecut=    60.00 Ry     beta= 0.30
     Davidson diagonalization with overlap
     ethr =  7.73E-12,  avg # of iterations =  1.0

     negative rho (up, down):  3.497E-02 0.000E+00

     total cpu time spent up to now is    10397.5 secs

     total energy              =   -5283.71040062 Ry
     estimated scf accuracy    <       0.00000002 Ry

     iteration # 29     ecut=    60.00 Ry     beta= 0.30
     Davidson diagonalization with overlap
     ethr =  3.48E-12,  avg # of iterations =  1.0

     negative rho (up, down):  3.497E-02 0.000E+00

     total cpu time spent up to now is    10403.7 secs

     total energy              =   -5283.71040062 Ry
     estimated scf accuracy    <       0.00000002 Ry

     iteration # 30     ecut=    60.00 Ry     beta= 0.30
     Davidson diagonalization with overlap
     ethr =  3.07E-12,  avg # of iterations =  2.0

     negative rho (up, down):  3.497E-02 0.000E+00

     total cpu time spent up to now is    10410.3 secs

     total energy              =   -5283.71040062 Ry
     estimated scf accuracy    <       0.00000003 Ry

     iteration # 31     ecut=    60.00 Ry     beta= 0.30
     Davidson diagonalization with overlap
     ethr =  3.07E-12,  avg # of iterations =  1.0

     negative rho (up, down):  3.497E-02 0.000E+00

     total cpu time spent up to now is    10416.5 secs

     total energy              =   -5283.71040062 Ry
     estimated scf accuracy    <          8.6E-09 Ry

     iteration # 32     ecut=    60.00 Ry     beta= 0.30
     Davidson diagonalization with overlap
     ethr =  1.59E-12,  avg # of iterations =  1.0

     negative rho (up, down):  3.497E-02 0.000E+00

     total cpu time spent up to now is    10422.5 secs

     total energy              =   -5283.71040062 Ry
     estimated scf accuracy    <          2.0E-09 Ry

     iteration # 33     ecut=    60.00 Ry     beta= 0.30
     Davidson diagonalization with overlap
     ethr =  3.64E-13,  avg # of iterations =  2.0

     negative rho (up, down):  3.497E-02 0.000E+00

     total cpu time spent up to now is    10429.2 secs

     End of self-consistent calculation

          k = 0.0000 0.0000 0.0000 ( 46961 PWs)   bands (ev):

   -69.6314 -69.6104 -69.5796 -69.5578 -69.5560 -69.5501 -69.5388 -69.5354
   -69.5143 -69.4897 -69.3131 -62.1478 -62.1279 -62.1248 -62.0827 -62.0738
   -62.0000 -61.9962 -61.9874 -61.8464 -61.7870 -54.3947 -54.3664 -54.2667
   -54.1133 -54.1065 -54.0880 -54.0646 -54.0393 -54.0155 -53.9988 -53.9387
   -41.0558 -41.0494 -41.0320 -41.0266 -41.0174 -41.0092 -41.0011 -40.9725
   -40.9675 -40.9583 -40.9516 -40.9447 -40.9371 -40.9317 -40.9303 -40.9076
   -40.9015 -40.8975 -40.8899 -40.8738 -40.8714 -40.8621 -40.8602 -40.8576
   -40.8447 -40.8357 -40.8228 -40.8208 -40.8017 -40.7903 -40.7592 -40.6673
   -40.5316 -36.1123 -36.0827 -36.0601 -36.0549 -36.0443 -36.0376 -36.0253
   -35.9884 -35.9801 -35.9757 -35.9593 -35.9542 -35.9428 -35.9219 -35.9182
   -35.9106 -35.9013 -35.8887 -35.8723 -35.8502 -35.8462 -35.8378 -35.7839
   -35.7727 -35.7534 -35.7168 -35.6754 -35.6560 -35.6431 -35.6103 -30.8294
   -30.7796 -30.6886 -30.6643 -30.6369 -30.6244 -30.6213 -30.6148 -30.5793
   -30.5541 -30.5286 -30.5263 -30.5183 -30.4916 -30.4815 -30.4742 -30.4706
   -30.4615 -30.4285 -30.4134 -30.4041 -30.3824 -30.3471 -30.3346 -30.3122
   -30.3052 -30.2920 -30.2621 -30.2483 -30.2245 -30.1863 -30.1797 -30.1416
   -10.7968  -9.7571  -9.3188  -9.2573  -9.1384  -9.0286  -8.6618  -8.4527
    -8.4037  -8.3787  -8.3362  -8.2369  -8.2134  -8.1097  -8.0579  -7.8649
    -7.7975  -7.7667  -7.6496  -7.5944  -7.5517  -7.5324  -7.4676  -7.4586
    -7.4065  -7.3610  -7.2065  -7.1306  -6.9837  -6.9389  -6.7592  -6.4926
    -4.0454  -3.9839  -3.9357  -3.8050  -3.0813  -2.9399  -2.7740  -2.7275
    -2.7086  -2.6577  -2.6306  -2.5602  -2.5037  -2.4454  -2.4289  -2.3074
    -2.1423  -2.1251  -2.0612  -1.9102  -1.8970  -1.8751  -1.8295  -1.7676
    -1.6827  -1.6045  -1.5538  -1.5119  -1.4817  -1.4704  -1.4293  -1.4204
    -1.4176  -1.4075  -1.4000  -1.3528  -1.3476  -1.3297  -1.3015  -1.2530
    -1.2186  -1.1678  -1.1541  -1.0980  -1.0531  -1.0188  -0.9903  -0.9562
    -0.9469  -0.8980  -0.8662  -0.8381  -0.8002  -0.7613  -0.7410  -0.7256
    -0.6968  -0.6789  -0.6623  -0.6346  -0.6257  -0.5138  -0.4846  -0.3975
    -0.3582  -0.3245  -0.2712  -0.2434  -0.2039  -0.1546  -0.1164  -0.0979
    -0.0763  -0.0213   0.0139   0.0334   0.0733   0.1982   0.2870   0.3531
     0.3822   0.4665   0.5698   0.6357   0.6423   0.7204   0.7744   0.8969
     0.9503   0.9721   1.0661   1.1627   1.2297   1.2707   1.3404   1.3537
     1.4668   1.5743   1.6398   1.7019   1.7280   1.8688   1.9149   2.0895
     2.1562   2.5738   2.6153   2.6773   2.7514   2.8193   2.8363   2.8829
     2.9618   3.0320   3.0351   3.0560   3.0854   3.1577   3.1664   3.2009
     3.2315   3.2457   3.2821   3.3129   3.3338   3.3536   3.3629   3.4142
     3.4414   3.4469   3.5152   3.5329   3.5413   3.5786   3.5990   3.6409
     3.6974   3.7731   3.8016   3.8430   3.8688   3.8867   3.9263   3.9613
     3.9741   4.0222   4.0415   4.0656   4.0941   4.1213   4.1785   4.1910
     4.2187   4.2480   4.2696   4.3708   4.4014   4.4619   4.4703   4.5120
     4.5315   4.5782   4.5900   4.6175   4.6990   4.7238

     the Fermi energy is     2.9280 ev

!    total energy              =   -5283.71040062 Ry
     estimated scf accuracy    <          9.2E-10 Ry
     smearing contrib. (-TS)   =      -0.03607667 Ry
     internal energy E=F+TS    =   -5283.67432395 Ry

     The total energy is F=E-TS. E is the sum of the following terms:
     one-electron contribution =  -55950.03167130 Ry
     hartree contribution      =   27998.80335193 Ry
     xc contribution           =    -787.68008188 Ry
     ewald contribution        =   23652.83872178 Ry
     one-center paw contrib.   =    -197.60464446 Ry

     convergence has been achieved in  33 iterations

     negative rho (up, down):  3.497E-02 0.000E+00

     Forces acting on atoms (cartesian axes, Ry/au):

     atom    1 type  1   force =     0.00051891    0.00139063   -0.00063812
     atom    2 type  1   force =    -0.00660310   -0.00462122    0.00282061
     atom    3 type  1   force =     0.00000657   -0.00002370    0.00047492
     atom    4 type  1   force =     0.00077632   -0.01646866    0.03052730
     atom    5 type  1   force =    -0.00440977    0.01308992    0.00164083
     atom    6 type  1   force =     0.00917903   -0.00236132    0.02771438
     atom    7 type  1   force =     0.00008397    0.00008104    0.00084893
     atom    8 type  1   force =     0.00011710    0.00017548    0.00002031
     atom    9 type  1   force =     0.00001629    0.00006170   -0.00040600
     atom   10 type  1   force =    -0.00118830    0.00065268    0.00037750
     atom   11 type  1   force =     0.00137446   -0.00006942    0.00005814
     atom   12 type  2   force =     0.00055456   -0.00058710   -0.00040393
     atom   13 type  2   force =    -0.00085572   -0.00053112   -0.00093779
     atom   14 type  2   force =     0.02104428   -0.00525991    0.00786271
     atom   15 type  2   force =    -0.01084043    0.00208728    0.11296810
     atom   16 type  2   force =     0.00719158   -0.00098305    0.09470808
     atom   17 type  2   force =    -0.00006636   -0.00026072    0.00104446
     atom   18 type  2   force =     0.00090468   -0.00056593    0.00045593
     atom   19 type  2   force =     0.00034552   -0.00053165   -0.00036424
     atom   20 type  2   force =     0.00427748   -0.00881995   -0.01117325
     atom   21 type  2   force =     0.00247479    0.02025880   -0.01254953
     atom   22 type  3   force =    -0.00004155    0.00061136    0.00004529
     atom   23 type  3   force =    -0.02243954   -0.01273134    0.00547608
     atom   24 type  3   force =     0.02364895    0.02198109   -0.01925164
     atom   25 type  3   force =     0.01452023   -0.01426092    0.06662089
     atom   26 type  3   force =    -0.00409981    0.01102322    0.12504551
     atom   27 type  3   force =    -0.00006066    0.00133188   -0.00015353
     atom   28 type  3   force =    -0.00980865   -0.00049664    0.03112308
     atom   29 type  3   force =    -0.00024742   -0.00061625   -0.00093496
     atom   30 type  3   force =    -0.00048574    0.00047299    0.00011705
     atom   31 type  3   force =     0.00969847   -0.00121191   -0.01953490
     atom   32 type  3   force =    -0.01181702   -0.00362284   -0.00895599
     atom   33 type  4   force =     0.00236924   -0.00752498   -0.03407605
     atom   34 type  4   force =     0.00954700    0.01248265   -0.00359402
     atom   35 type  4   force =    -0.00256783   -0.01698518   -0.01927138
     atom   36 type  4   force =     0.00129407    0.01106960   -0.03359571
     atom   37 type  4   force =    -0.00013989    0.00001179    0.00042455
     atom   38 type  4   force =     0.00046120   -0.00001249    0.00129194
     atom   39 type  4   force =     0.00063458   -0.00014834    0.00078804
     atom   40 type  4   force =     0.00054200    0.00015465   -0.00015383
     atom   41 type  4   force =    -0.00028229   -0.00092253    0.00012415
     atom   42 type  4   force =     0.00034131    0.00033661   -0.00028620
     atom   43 type  4   force =    -0.00040631    0.00010872    0.00193440
     atom   44 type  4   force =    -0.00107684    0.00073387    0.00044518
     atom   45 type  4   force =     0.00498361    0.00619319   -0.03734302
     atom   46 type  4   force =     0.00079851    0.00191543   -0.04316369
     atom   47 type  4   force =    -0.00865831   -0.00274877   -0.01987727
     atom   48 type  4   force =    -0.01402982   -0.00740218   -0.02274243
     atom   49 type  4   force =     0.00088292    0.00018391    0.00081167
     atom   50 type  4   force =     0.00031567    0.00021817   -0.00019080
     atom   51 type  4   force =    -0.00019149    0.00020048    0.00052367
     atom   52 type  4   force =     0.00008042   -0.00023639   -0.00012494
     atom   53 type  4   force =    -0.00196162   -0.00529042   -0.02947390
     atom   54 type  4   force =    -0.00567865    0.00742461   -0.03183057
     atom   55 type  4   force =    -0.00034830    0.00435549   -0.03349222
     atom   56 type  4   force =    -0.00144054   -0.00844370   -0.02751552
     atom   57 type  4   force =    -0.01698534    0.00842692   -0.02365182
     atom   58 type  4   force =    -0.00947709   -0.00657049   -0.03141379
     atom   59 type  4   force =     0.01461058    0.01404741   -0.03003931
     atom   60 type  4   force =     0.00215424   -0.01044478   -0.01941261
     atom   61 type  4   force =     0.00030182   -0.00039534   -0.00040118
     atom   62 type  4   force =    -0.00014458   -0.00007379    0.00045247
     atom   63 type  4   force =     0.00000815   -0.00007090    0.00017897
     atom   64 type  4   force =     0.00029451    0.00021236    0.00002900

     Total force =     0.005552     Total SCF correction =     0.000083
     Energy error            =      5.2E-05 Ry
     Gradient error          =      1.9E-03 Ry/Bohr

     bfgs converged in  26 scf cycles and  25 bfgs steps
     (criteria: energy <  1.0E-04 Ry, force <  1.0E-02 Ry/Bohr)

     End of BFGS Geometry Optimization

     Final energy             =   -5283.7104006173 Ry

     File ./tmp/hec3_CrTiV_f100_CO_clean.bfgs deleted, as requested
Begin final coordinates

ATOMIC_POSITIONS (angstrom)
Ti               8.3484430025       -0.0176070090       15.7800042133
Ti               0.0291331002        8.3621570543       11.5803477355    0   0   0
Ti               2.0917527268        4.2061459428       13.6917210280
Ti               8.3795041056        2.0957563981        9.4724378689    0   0   0
Ti               8.3750099733        6.2687152092        9.4933225157    0   0   0
Ti               4.2170671874        6.2898439467        9.4911460380    0   0   0
Ti               8.3718966904        2.0949231723       13.6559343969
Ti               8.3888677544        6.2662870166       13.6396822426
Ti               4.2046226960        6.2669585206       13.6497277618
Ti               2.0918797985        6.2307631027       15.7966782771
Ti               6.2514452903        6.2458340258       15.7827186411
V                8.3031968919        4.0981559106       15.6867507430
V                4.1599775812        4.0330226415       15.6623479773
V                4.1453105473        4.2119457891       11.5975026988    0   0   0
V                2.1879867013        0.0520231596        9.5054883674    0   0   0
V                2.1522427348        4.1319303501        9.4904675789    0   0   0
V                2.1025585522        8.3573510923       13.6504811620
V                6.3015487535        4.2238442442       13.7337128809
V                4.1936684321        2.1176349100       13.5556189027
V                2.1048639148        6.2714192178       11.5723879270    0   0   0
V                6.3158808164        6.1438819511       11.5700667150    0   0   0
Cr               4.1378349418       -0.0413130014       15.5743693016
Cr               0.1179128009        4.1786640750       11.5195623927    0   0   0
Cr               4.1681598842        8.2577799257       11.6615352591    0   0   0
Cr               6.1999882077        0.1106418811        9.6948923906    0   0   0
Cr               6.2007452456        4.0563627707        9.3394942948    0   0   0
Cr               6.3281251154        8.2775105799       13.5586166589
Cr               4.2149984025        2.0754774019        9.7444374941    0   0   0
Cr               2.0497956914        2.0439095171       15.5950498541
Cr               6.1591385475        1.9642835837       15.5525139546
Cr               2.0054620409        2.1149661174       11.6192682974    0   0   0
Cr               6.3992485267        2.2488278238       11.6549867199    0   0   0
C                8.3671464633        0.0123762133        9.4921945368    0   0   0
C                8.3685510870        4.1683341954        9.4949958325    0   0   0
C                4.2233794382        0.0660683478        9.5137772640    0   0   0
C                4.2071394793        4.1170355077        9.4900603783    0   0   0
C                8.3748964721       -0.0095793571       13.7532533254
C                8.3491233244        4.1646396849       13.7641725131
C                4.2185880149        0.0052869764       13.7106869433
C                4.2111562583        4.1231084090       13.7177817488
C                2.2364522566        0.1277362693       15.8835264456
C                2.1963631320        4.1706819018       15.9301621622
C                6.2845402120        0.1205684710       15.9211090163
C                6.3142536833        4.1533792647       15.9057813256
C                2.1521326937        0.0175132539       11.5903255372    0   0   0
C                2.1078429860        4.1683083653       11.5671868517    0   0   0
C                6.2417937451        0.0188099573       11.6002801854    0   0   0
C                6.3283074126        4.1569384024       11.5682471185    0   0   0
C                8.5632818999        2.1524753445       15.9186896328
C                8.4129004522        6.3018612242       16.0163039256
C                4.2786456589        2.1057468929       15.7690837206
C                4.2320709895        6.4642026274       15.9550632247
C                0.0147673152        2.1438801594       11.5939557114    0   0   0
C                0.0200697416        6.2277703895       11.5821679336    0   0   0
C                4.2182428542        2.0594943016       11.6100232202    0   0   0
C                4.2117703951        6.2583221129       11.5919858628    0   0   0
C                2.1713130363        2.0860319016        9.4919958919    0   0   0
C                2.1164500536        6.2753611976        9.5156635851    0   0   0
C                6.2203151227        2.0809934926        9.4961719556    0   0   0
C                6.2861737462        6.2618311600        9.5257047400    0   0   0
C                2.1214997150        2.0574304579       13.7319911607
C                2.1065521775        6.2875344528       13.7600294399
C                6.2457192622        2.0507957287       13.6956508996
C                6.2948604159        6.2435820201       13.7323410550
End final coordinates



     Writing all to output data dir ./tmp/hec3_CrTiV_f100_CO_clean.save/ :
     XML data file, charge density, pseudopotentials, collected wavefunctions
 
     init_run     :     11.07s CPU     13.05s WALL (       1 calls)
     electrons    :   9352.51s CPU  10164.43s WALL (      26 calls)
     update_pot   :     68.96s CPU     76.48s WALL (      25 calls)
     forces       :     73.54s CPU     74.53s WALL (      26 calls)

     Called by init_run:
     wfcinit      :      5.45s CPU      5.55s WALL (       1 calls)
     potinit      :      4.18s CPU      4.62s WALL (       1 calls)
     hinit0       :      0.48s CPU      0.62s WALL (       1 calls)

     Called by electrons:
     c_bands      :   4048.89s CPU   4320.49s WALL (    1353 calls)
     sum_band     :    788.45s CPU    832.68s WALL (    1353 calls)
     v_of_rho     :     74.22s CPU    101.18s WALL (    1378 calls)
     newd         :   1014.29s CPU   1033.05s WALL (    1378 calls)
                                     1032.97s GPU  (    1378 calls)
     PAW_pot      :   3409.29s CPU   3842.89s WALL (    1403 calls)
     mix_rho      :     66.92s CPU     72.05s WALL (    1353 calls)

     Called by c_bands:
     init_us_2    :     23.64s CPU     26.35s WALL (    2732 calls)
     regterg      :   3994.45s CPU   4261.19s WALL (    1353 calls)

     Called by *egterg:
     rdiaghg      :   1708.69s CPU   1960.95s WALL (    5070 calls)
                                     1960.75s GPU  (    5070 calls)
     h_psi        :   1141.25s CPU   1151.10s WALL (    5097 calls)
                                     1150.92s GPU  (    5097 calls)
     s_psi        :      5.59s CPU      6.49s WALL (    5097 calls)
     g_psi        :      0.10s CPU      5.28s WALL (    3743 calls)
                                        5.09s GPU  (    3743 calls)

     Called by h_psi:
     h_psi:calbec :      0.84s CPU    378.54s WALL (    5097 calls)
                                      378.26s GPU  (    5097 calls)
     vloc_psi     :    503.96s CPU    511.28s WALL (    5097 calls)
                                      511.12s GPU  (    5097 calls)
     add_vuspsi   :      4.32s CPU    256.42s WALL (    5097 calls)
                                      256.05s GPU  (    5097 calls)

     General routines
     calbec       :     13.61s CPU     13.67s WALL (    6579 calls)
     fft          :     45.92s CPU     69.49s WALL (   15366 calls)
                                       23.26s GPU  (   13988 calls)
     ffts         :     13.52s CPU     14.20s WALL (    2731 calls)
                                        0.68s GPU  (    1353 calls)
     fftw         :      7.57s CPU    532.78s WALL (  287545 calls)
                                      522.75s GPU  (  287545 calls)
     interpolate  :     70.52s CPU     97.75s WALL (    1378 calls)
 
     Parallel routines
 
     PWSCF        :      2h40m CPU      2h53m WALL

 
   This run was terminated on:  12: 3:56  21Jul2026            

=------------------------------------------------------------------------------=
   JOB DONE.
=------------------------------------------------------------------------------=
Warning: ieee_invalid is signaling
Warning: ieee_divide_by_zero is signaling
Warning: ieee_inexact is signaling
FORTRAN STOP
