
     Program PWSCF v.7.3.1 starts on 18Jul2026 at  6: 6:42 

     This program is part of the open-source Quantum ESPRESSO suite
     for quantum simulation of materials; please cite
         "P. Giannozzi et al., J. Phys.:Condens. Matter 21 395502 (2009);
         "P. Giannozzi et al., J. Phys.:Condens. Matter 29 465901 (2017);
         "P. Giannozzi et al., J. Chem. Phys. 152 154105 (2020);
          URL http://www.quantum-espresso.org", 
     in publications or presentations arising from this work. More details at
     http://www.quantum-espresso.org/quote

     Parallel version (MPI & OpenMP), running on       1 processor cores
     Number of MPI processes:                 1
     Threads/MPI process:                     1

     MPI processes distributed on     1 nodes
     36351 MiB available memory on the printing compute node when the environment starts
 
     Reading input from relax.in
Warning: card &CELL ignored
Warning: card / ignored
Warning: card &FCP ignored
Warning: card / ignored
Warning: card &RISM ignored
Warning: card / ignored

     Current dimensions of program PWSCF are:
     Max number of different atomic species (ntypx) = 10
     Max number of k-points (npk) =  40000
     Max angular momentum in pseudopotentials (lmaxx) =  4

     gamma-point specific algorithms are used
     Message from routine setup:
     using ibrav=0 with symmetry is DISCOURAGED, use correct ibrav instead
 
     Subspace diagonalization in iterative solution of the eigenvalue problem:
     a serial algorithm will be used

 
     G-vector sticks info
     --------------------
     sticks:   dense  smooth     PW     G-vecs:    dense   smooth      PW
     Sum       26757   13381   3341              3289445  1162695  145165
 
     Using Slab Decomposition
 


     bravais-lattice index     =            0
     lattice parameter (alat)  =      26.4562  a.u.
     unit-cell volume          =   18517.4299 (a.u.)^3
     number of atoms/cell      =            2
     number of atomic types    =            1
     number of electrons       =         2.00
     number of Kohn-Sham states=            5
     kinetic-energy cutoff     =      60.0000  Ry
     charge density cutoff     =     480.0000  Ry
     scf convergence threshold =      1.0E-08
     mixing beta               =       0.3000
     number of iterations used =            8  plain     mixing
     energy convergence thresh.=      1.0E-04
     force convergence thresh. =      1.0E-03
     Exchange-correlation= PBE
                           (   1   4   3   4   0   0   0)
     nstep                     =          100


     GPU acceleration is ACTIVE.  1 visible GPUs per MPI rank

     Assuming isolated system, Martyna-Tuckerman method


     celldm(1)=  26.456166  celldm(2)=   0.000000  celldm(3)=   0.000000
     celldm(4)=   0.000000  celldm(5)=   0.000000  celldm(6)=   0.000000

     crystal axes: (cart. coord. in units of alat)
               a(1) = (   1.000000   0.000000   0.000000 )  
               a(2) = (   0.000000   1.000000   0.000000 )  
               a(3) = (   0.000000   0.000000   1.000000 )  

     reciprocal axes: (cart. coord. in units 2 pi/alat)
               b(1) = (  1.000000  0.000000  0.000000 )  
               b(2) = (  0.000000  1.000000  0.000000 )  
               b(3) = (  0.000000  0.000000  1.000000 )  


     PseudoPot. # 1 for H  read from file:
     /home/jonglee69/software/qe_pseudo/active/H.pbe-rrkjus_psl.1.0.0.UPF
     MD5 check sum: f52b6d4d1c606e5624b1dc7b2218f220
     Pseudo is Ultrasoft, Zval =  1.0
     Generated using "atomic" code by A. Dal Corso  v.5.1
     Using radial grid of  929 points,  2 beta functions with: 
                l(1) =   0
                l(2) =   0
     Q(r) pseudized with 0 coefficients 


     atomic species   valence    mass     pseudopotential
     H                 1.00     1.00800     H ( 1.00)

     16 Sym. Ops., with inversion, found



   Cartesian axes

     site n.     atom                  positions (alat units)
         1        H      tau(   1) = (   0.5000000   0.5000000   0.4735714  )
         2        H      tau(   2) = (   0.5000000   0.5000000   0.5264286  )

     number of k points=     1  Gaussian smearing, width (Ry)=  0.0050
                       cart. coord. in units 2pi/alat
        k(    1) = (   0.0000000   0.0000000   0.0000000), wk =   2.0000000

     Dense  grid:  1644723 G-vectors     FFT dimensions: ( 192, 192, 192)

     Smooth grid:   581348 G-vectors     FFT dimensions: ( 135, 135, 135)

     Estimated max dynamical RAM per process >       1.40 GB

     Initial potential from superposition of free atoms

     starting charge       2.0000, renormalised to       2.0000

     negative rho (up, down):  2.454E-05 0.000E+00
     Starting wfcs are    2 randomized atomic wfcs +    3 random wfcs

     total cpu time spent up to now is        3.4 secs

     Self-consistent Calculation

     iteration #  1     ecut=    60.00 Ry     beta= 0.30
     Davidson diagonalization with overlap
     ethr =  1.00E-02,  avg # of iterations = 10.0

     negative rho (up, down):  3.654E-05 0.000E+00

     total cpu time spent up to now is        4.6 secs

     total energy              =      -2.35247659 Ry
     estimated scf accuracy    <       0.11832941 Ry

     iteration #  2     ecut=    60.00 Ry     beta= 0.30
     Davidson diagonalization with overlap
     ethr =  5.92E-03,  avg # of iterations =  1.0

     negative rho (up, down):  8.495E-05 0.000E+00

     total cpu time spent up to now is        5.1 secs

     total energy              =      -2.32753654 Ry
     estimated scf accuracy    <       0.04643207 Ry

     iteration #  3     ecut=    60.00 Ry     beta= 0.30
     Davidson diagonalization with overlap
     ethr =  2.32E-03,  avg # of iterations =  1.0

     negative rho (up, down):  5.934E-05 0.000E+00

     total cpu time spent up to now is        5.6 secs

     total energy              =      -2.33305478 Ry
     estimated scf accuracy    <       0.00021072 Ry

     iteration #  4     ecut=    60.00 Ry     beta= 0.30
     Davidson diagonalization with overlap
     c_bands:  2 eigenvalues not converged
     ethr =  1.05E-05,  avg # of iterations = 20.0

     negative rho (up, down):  6.281E-05 0.000E+00

     total cpu time spent up to now is        7.4 secs

     total energy              =      -2.33305339 Ry
     estimated scf accuracy    <       0.00022113 Ry

     iteration #  5     ecut=    60.00 Ry     beta= 0.30
     Davidson diagonalization with overlap
     ethr =  1.05E-05,  avg # of iterations = 15.0

     negative rho (up, down):  6.489E-05 0.000E+00

     total cpu time spent up to now is        8.3 secs

     total energy              =      -2.33308269 Ry
     estimated scf accuracy    <       0.00000340 Ry

     iteration #  6     ecut=    60.00 Ry     beta= 0.30
     Davidson diagonalization with overlap
     ethr =  1.70E-07,  avg # of iterations =  5.0

     negative rho (up, down):  6.641E-05 0.000E+00

     total cpu time spent up to now is        9.2 secs

     total energy              =      -2.33308269 Ry
     estimated scf accuracy    <       0.00000051 Ry

     iteration #  7     ecut=    60.00 Ry     beta= 0.30
     Davidson diagonalization with overlap
     ethr =  2.56E-08,  avg # of iterations =  1.0

     negative rho (up, down):  6.790E-05 0.000E+00

     total cpu time spent up to now is        9.7 secs

     total energy              =      -2.33308275 Ry
     estimated scf accuracy    <       0.00000011 Ry

     iteration #  8     ecut=    60.00 Ry     beta= 0.30
     Davidson diagonalization with overlap
     ethr =  5.26E-09,  avg # of iterations =  1.0

     negative rho (up, down):  6.855E-05 0.000E+00

     total cpu time spent up to now is       10.2 secs

     total energy              =      -2.33308275 Ry
     estimated scf accuracy    <       0.00000001 Ry

     iteration #  9     ecut=    60.00 Ry     beta= 0.30
     Davidson diagonalization with overlap
     ethr =  6.42E-10,  avg # of iterations =  1.0

     negative rho (up, down):  7.053E-05 0.000E+00

     total cpu time spent up to now is       10.7 secs

     End of self-consistent calculation

          k = 0.0000 0.0000 0.0000 ( 72583 PWs)   bands (ev):

   -10.3881  -0.1317   0.2351   0.5348   0.5420

     the Fermi energy is    -4.9230 ev

!    total energy              =      -2.33308277 Ry
     estimated scf accuracy    <          2.2E-09 Ry
     smearing contrib. (-TS)   =      -0.00000000 Ry
     internal energy E=F+TS    =      -2.33308277 Ry

     The total energy is F=E-TS. E is the sum of the following terms:
     one-electron contribution =      -5.00997004 Ry
     hartree contribution      =       2.62831305 Ry
     xc contribution           =      -1.38163446 Ry
     ewald contribution        =       1.43020868 Ry

     convergence has been achieved in   9 iterations

     Forces acting on atoms (cartesian axes, Ry/au):

     atom    1 type  1   force =     0.00000000    0.00000000   -0.01436949
     atom    2 type  1   force =     0.00000000    0.00000000    0.01436949

     Total force =     0.020322     Total SCF correction =     0.000015

     BFGS Geometry Optimization
     Energy error            =      0.0E+00 Ry
     Gradient error          =      1.4E-02 Ry/Bohr

     number of scf cycles    =   1
     number of bfgs steps    =   0

     energy             new  =      -2.3330827712 Ry

     new trust radius        =       0.0143694883 bohr
     new conv_thr            =       0.0000000100 Ry


ATOMIC_POSITIONS (angstrom)
H                7.0000000000        7.0000000000        6.6223959943
H                7.0000000000        7.0000000000        7.3776040057



     Writing config-only to output data dir ./tmp/H2.save/ :
     XML data file
     NEW-OLD atomic charge density approx. for the potential

     negative rho (up, down):  6.990E-05 0.000E+00

     total cpu time spent up to now is       11.3 secs

     Self-consistent Calculation

     iteration #  1     ecut=    60.00 Ry     beta= 0.30
     Davidson diagonalization with overlap
     ethr =  1.00E-06,  avg # of iterations =  4.0

     negative rho (up, down):  6.961E-05 0.000E+00

     total cpu time spent up to now is       12.3 secs

     total energy              =      -2.33319883 Ry
     estimated scf accuracy    <       0.00006846 Ry

     iteration #  2     ecut=    60.00 Ry     beta= 0.30
     Davidson diagonalization with overlap
     ethr =  3.42E-06,  avg # of iterations =  1.0

     negative rho (up, down):  7.006E-05 0.000E+00

     total cpu time spent up to now is       12.7 secs

     total energy              =      -2.33318944 Ry
     estimated scf accuracy    <       0.00002554 Ry

     iteration #  3     ecut=    60.00 Ry     beta= 0.30
     Davidson diagonalization with overlap
     ethr =  1.28E-06,  avg # of iterations =  2.0

     negative rho (up, down):  6.999E-05 0.000E+00

     total cpu time spent up to now is       13.2 secs

     total energy              =      -2.33319231 Ry
     estimated scf accuracy    <       0.00000019 Ry

     iteration #  4     ecut=    60.00 Ry     beta= 0.30
     Davidson diagonalization with overlap
     ethr =  9.63E-09,  avg # of iterations =  1.0

     negative rho (up, down):  6.980E-05 0.000E+00

     total cpu time spent up to now is       13.7 secs

     total energy              =      -2.33319232 Ry
     estimated scf accuracy    <       0.00000001 Ry

     iteration #  5     ecut=    60.00 Ry     beta= 0.30
     Davidson diagonalization with overlap
     ethr =  7.34E-10,  avg # of iterations =  1.0

     negative rho (up, down):  6.948E-05 0.000E+00

     total cpu time spent up to now is       14.1 secs

     End of self-consistent calculation

          k = 0.0000 0.0000 0.0000 ( 72583 PWs)   bands (ev):

   -10.3151  -0.1327   0.1990   0.5312   0.5385

     the Fermi energy is    -4.8883 ev

!    total energy              =      -2.33319232 Ry
     estimated scf accuracy    <          2.7E-10 Ry
     smearing contrib. (-TS)   =      -0.00000000 Ry
     internal energy E=F+TS    =      -2.33319232 Ry

     The total energy is F=E-TS. E is the sum of the following terms:
     one-electron contribution =      -4.97024702 Ry
     hartree contribution      =       2.60768973 Ry
     xc contribution           =      -1.37204286 Ry
     ewald contribution        =       1.40140783 Ry

     convergence has been achieved in   5 iterations

     Forces acting on atoms (cartesian axes, Ry/au):

     atom    1 type  1   force =     0.00000000    0.00000000    0.00640989
     atom    2 type  1   force =     0.00000000    0.00000000   -0.00640989

     Total force =     0.009065     Total SCF correction =     0.000005
     Energy error            =      1.1E-04 Ry
     Gradient error          =      6.4E-03 Ry/Bohr

     number of scf cycles    =   2
     number of bfgs steps    =   1

     energy             old  =      -2.3330827712 Ry
     energy             new  =      -2.3331923163 Ry

     CASE: energy            _new < energy            _old

     new trust radius        =       0.0044326071 bohr
     new conv_thr            =       0.0000000001 Ry


ATOMIC_POSITIONS (angstrom)
H                7.0000000000        7.0000000000        6.6247416289
H                7.0000000000        7.0000000000        7.3752583711



     Writing config-only to output data dir ./tmp/H2.save/ :
     XML data file
     NEW-OLD atomic charge density approx. for the potential

     negative rho (up, down):  6.956E-05 0.000E+00

     total cpu time spent up to now is       14.8 secs

     Self-consistent Calculation

     iteration #  1     ecut=    60.00 Ry     beta= 0.30
     Davidson diagonalization with overlap
     ethr =  1.00E-06,  avg # of iterations =  2.0

     negative rho (up, down):  6.964E-05 0.000E+00

     total cpu time spent up to now is       15.7 secs

     total energy              =      -2.33322251 Ry
     estimated scf accuracy    <       0.00000619 Ry

     iteration #  2     ecut=    60.00 Ry     beta= 0.30
     Davidson diagonalization with overlap
     ethr =  3.10E-07,  avg # of iterations =  1.0

     negative rho (up, down):  6.972E-05 0.000E+00

     total cpu time spent up to now is       16.2 secs

     total energy              =      -2.33322149 Ry
     estimated scf accuracy    <       0.00000249 Ry

     iteration #  3     ecut=    60.00 Ry     beta= 0.30
     Davidson diagonalization with overlap
     ethr =  1.24E-07,  avg # of iterations =  2.0

     negative rho (up, down):  6.971E-05 0.000E+00

     total cpu time spent up to now is       16.7 secs

     total energy              =      -2.33322183 Ry
     estimated scf accuracy    <       0.00000003 Ry

     iteration #  4     ecut=    60.00 Ry     beta= 0.30
     Davidson diagonalization with overlap
     ethr =  1.57E-09,  avg # of iterations =  2.0

     negative rho (up, down):  6.973E-05 0.000E+00

     total cpu time spent up to now is       17.2 secs

     total energy              =      -2.33322181 Ry
     estimated scf accuracy    <       0.00000008 Ry

     iteration #  5     ecut=    60.00 Ry     beta= 0.30
     Davidson diagonalization with overlap
     ethr =  1.57E-09,  avg # of iterations =  2.0

     negative rho (up, down):  6.979E-05 0.000E+00

     total cpu time spent up to now is       17.6 secs

     End of self-consistent calculation

          k = 0.0000 0.0000 0.0000 ( 72583 PWs)   bands (ev):

   -10.3376  -0.1325   0.2103   0.5320   0.5388

     the Fermi energy is    -4.8994 ev

!    total energy              =      -2.33322182 Ry
     estimated scf accuracy    <          8.2E-12 Ry
     smearing contrib. (-TS)   =      -0.00000000 Ry
     internal energy E=F+TS    =      -2.33322182 Ry

     The total energy is F=E-TS. E is the sum of the following terms:
     one-electron contribution =      -4.98242950 Ry
     hartree contribution      =       2.61402852 Ry
     xc contribution           =      -1.37498848 Ry
     ewald contribution        =       1.41016764 Ry

     convergence has been achieved in   5 iterations

     Forces acting on atoms (cartesian axes, Ry/au):

     atom    1 type  1   force =     0.00000000    0.00000000    0.00022123
     atom    2 type  1   force =     0.00000000    0.00000000   -0.00022123

     Total force =     0.000313     Total SCF correction =     0.000001
     Energy error            =      2.9E-05 Ry
     Gradient error          =      2.2E-04 Ry/Bohr

     bfgs converged in   3 scf cycles and   2 bfgs steps
     (criteria: energy <  1.0E-04 Ry, force <  1.0E-03 Ry/Bohr)

     End of BFGS Geometry Optimization

     Final energy             =      -2.3332218160 Ry

     File ./tmp/H2.bfgs deleted, as requested
Begin final coordinates

ATOMIC_POSITIONS (angstrom)
H                7.0000000000        7.0000000000        6.6247416289
H                7.0000000000        7.0000000000        7.3752583711
End final coordinates



     Writing all to output data dir ./tmp/H2.save/ :
     XML data file, charge density, pseudopotentials, collected wavefunctions
 
     init_run     :      3.06s CPU      3.42s WALL (       1 calls)
     electrons    :     11.87s CPU     13.10s WALL (       3 calls)
     update_pot   :      0.23s CPU      0.29s WALL (       2 calls)
     forces       :      0.77s CPU      0.81s WALL (       3 calls)

     Called by init_run:
     wfcinit      :      0.07s CPU      0.10s WALL (       1 calls)
     potinit      :      2.30s CPU      2.45s WALL (       1 calls)
     hinit0       :      0.38s CPU      0.47s WALL (       1 calls)

     Called by electrons:
     c_bands      :      5.30s CPU      5.37s WALL (      19 calls)
     sum_band     :      1.30s CPU      1.35s WALL (      19 calls)
     v_of_rho     :      1.65s CPU      2.34s WALL (      22 calls)
     newd         :      0.50s CPU      0.54s WALL (      22 calls)
                                        0.54s GPU  (      22 calls)
     mix_rho      :      0.71s CPU      0.78s WALL (      19 calls)

     Called by c_bands:
     init_us_2    :      0.03s CPU      0.03s WALL (      39 calls)
     regterg      :      5.26s CPU      5.33s WALL (      19 calls)

     Called by *egterg:
     rdiaghg      :      0.07s CPU      0.09s WALL (      90 calls)
                                        0.09s GPU  (      90 calls)
     h_psi        :      2.80s CPU      2.84s WALL (      93 calls)
                                        2.84s GPU  (      93 calls)
     s_psi        :      0.01s CPU      0.02s WALL (      93 calls)
     g_psi        :      0.00s CPU      0.01s WALL (      73 calls)
                                        0.01s GPU  (      73 calls)

     Called by h_psi:
     h_psi:calbec :      0.01s CPU      2.30s WALL (      93 calls)
                                        2.29s GPU  (      93 calls)
     vloc_psi     :      0.45s CPU      0.48s WALL (      93 calls)
                                        0.48s GPU  (      93 calls)
     add_vuspsi   :      0.01s CPU      0.02s WALL (      93 calls)
                                        0.02s GPU  (      93 calls)

     General routines
     calbec       :      0.01s CPU      0.01s WALL (     124 calls)
     fft          :      2.67s CPU      3.18s WALL (     247 calls)
                                        0.48s GPU  (     225 calls)
     ffts         :      0.85s CPU      0.87s WALL (      41 calls)
                                        0.02s GPU  (      19 calls)
     fftw         :      0.01s CPU      0.39s WALL (     243 calls)
                                        0.38s GPU  (     243 calls)
     interpolate  :      3.79s CPU      4.15s WALL (      22 calls)
 
     Parallel routines
 
     PWSCF        :     16.21s CPU     18.02s WALL

 
   This run was terminated on:   6: 7: 0  18Jul2026            

=------------------------------------------------------------------------------=
   JOB DONE.
=------------------------------------------------------------------------------=
Warning: ieee_invalid is signaling
Warning: ieee_divide_by_zero is signaling
Warning: ieee_inexact is signaling
FORTRAN STOP
