
     Program PWSCF v.7.3.1 starts on 21Jul2026 at 15:44:15 

     This program is part of the open-source Quantum ESPRESSO suite
     for quantum simulation of materials; please cite
         "P. Giannozzi et al., J. Phys.:Condens. Matter 21 395502 (2009);
         "P. Giannozzi et al., J. Phys.:Condens. Matter 29 465901 (2017);
         "P. Giannozzi et al., J. Chem. Phys. 152 154105 (2020);
          URL http://www.quantum-espresso.org", 
     in publications or presentations arising from this work. More details at
     http://www.quantum-espresso.org/quote

     Parallel version (MPI & OpenMP), running on       1 processor cores
     Number of MPI processes:                 1
     Threads/MPI process:                     1

     MPI processes distributed on     1 nodes
     41723 MiB available memory on the printing compute node when the environment starts
 
     Reading input from relax.in
Warning: card &CELL ignored
Warning: card / ignored
Warning: card &FCP ignored
Warning: card / ignored
Warning: card &RISM ignored
Warning: card / ignored

     Current dimensions of program PWSCF are:
     Max number of different atomic species (ntypx) = 10
     Max number of k-points (npk) =  40000
     Max angular momentum in pseudopotentials (lmaxx) =  4
     file C.pbe-n-kjpaw_psl.1.0.0.UPF: wavefunction(s)  2S 2P renormalized
     file O.pbe-n-kjpaw_psl.0.1.UPF: wavefunction(s)  2P renormalized

     gamma-point specific algorithms are used
 
     Subspace diagonalization in iterative solution of the eigenvalue problem:
     a serial algorithm will be used

 
     G-vector sticks info
     --------------------
     sticks:   dense  smooth     PW     G-vecs:    dense   smooth      PW
     Sum        9573    4781   1201              2123491   750579   93921
 
     Using Slab Decomposition
 


     bravais-lattice index     =            0
     lattice parameter (alat)  =      15.8284  a.u.
     unit-cell volume          =   11958.4964 (a.u.)^3
     number of atoms/cell      =           68
     number of atomic types    =            6
     number of electrons       =       561.00
     number of Kohn-Sham states=          337
     kinetic-energy cutoff     =      60.0000  Ry
     charge density cutoff     =     480.0000  Ry
     scf convergence threshold =      1.0E-07
     mixing beta               =       0.3000
     number of iterations used =            8  plain     mixing
     energy convergence thresh.=      1.0E-04
     force convergence thresh. =      1.0E-02
     Exchange-correlation= PBE
                           (   1   4   3   4   0   0   0)
     nstep                     =           80


     GPU acceleration is ACTIVE.  1 visible GPUs per MPI rank


     celldm(1)=  15.828379  celldm(2)=   0.000000  celldm(3)=   0.000000
     celldm(4)=   0.000000  celldm(5)=   0.000000  celldm(6)=   0.000000

     crystal axes: (cart. coord. in units of alat)
               a(1) = (   1.000000   0.000000   0.000000 )  
               a(2) = (   0.000556   0.999437   0.000000 )  
               a(3) = (   0.001922  -0.002259   3.017254 )  

     reciprocal axes: (cart. coord. in units 2 pi/alat)
               b(1) = (  1.000000 -0.000557 -0.000637 )  
               b(2) = ( -0.000000  1.000564  0.000749 )  
               b(3) = (  0.000000  0.000000  0.331427 )  


     PseudoPot. # 1 for Ti read from file:
     /home/jonglee69/software/qe_pseudo/active/ti_pbe_v1.4.uspp.F.UPF
     MD5 check sum: 88a00a6731bd790ddea75d31a80cb452
     Pseudo is Ultrasoft + core correction, Zval = 12.0
     Generated by new atomic code, or converted to UPF format
     Using radial grid of  851 points,  6 beta functions with: 
                l(1) =   0
                l(2) =   0
                l(3) =   1
                l(4) =   1
                l(5) =   2
                l(6) =   2
     Q(r) pseudized with  6 coefficients,  rinner =    1.000   1.000   1.000
                                                       1.000   1.000

     PseudoPot. # 2 for V  read from file:
     /home/jonglee69/software/qe_pseudo/active/v_pbe_v1.4.uspp.F.UPF
     MD5 check sum: 22b79981416ebb76fdaf5b1b8640f6fb
     Pseudo is Ultrasoft + core correction, Zval = 13.0
     Generated by new atomic code, or converted to UPF format
     Using radial grid of  853 points,  6 beta functions with: 
                l(1) =   0
                l(2) =   0
                l(3) =   1
                l(4) =   1
                l(5) =   2
                l(6) =   2
     Q(r) pseudized with  8 coefficients,  rinner =    1.100   1.100   1.100
                                                       1.100   1.100

     PseudoPot. # 3 for Cr read from file:
     /home/jonglee69/software/qe_pseudo/active/cr_pbe_v1.5.uspp.F.UPF
     MD5 check sum: 0d52af634a40206e4dee301ad30da4bf
     Pseudo is Ultrasoft + core correction, Zval = 14.0
     Generated by new atomic code, or converted to UPF format
     Using radial grid of  857 points,  6 beta functions with: 
                l(1) =   0
                l(2) =   0
                l(3) =   1
                l(4) =   1
                l(5) =   2
                l(6) =   2
     Q(r) pseudized with  8 coefficients,  rinner =    0.950   0.950   0.950
                                                       0.950   0.950

     PseudoPot. # 4 for C  read from file:
     /home/jonglee69/software/qe_pseudo/active/C.pbe-n-kjpaw_psl.1.0.0.UPF
     MD5 check sum: 5d2aebdfa2cae82b50a7e79e9516da0f
     Pseudo is Projector augmented-wave + core cor, Zval =  4.0
     Generated using "atomic" code by A. Dal Corso  v.5.1
     Shape of augmentation charge: PSQ
     Using radial grid of 1073 points,  4 beta functions with: 
                l(1) =   0
                l(2) =   0
                l(3) =   1
                l(4) =   1
     Q(r) pseudized with 0 coefficients 


     PseudoPot. # 5 for O  read from file:
     /home/jonglee69/software/qe_pseudo/active/O.pbe-n-kjpaw_psl.0.1.UPF
     MD5 check sum: 0234752ac141de4415c5fc33072bef88
     Pseudo is Projector augmented-wave + core cor, Zval =  6.0
     Generated using "atomic" code by A. Dal Corso  v.5.0.99 svn rev. 10869
     Shape of augmentation charge: BESSEL
     Using radial grid of 1095 points,  4 beta functions with: 
                l(1) =   0
                l(2) =   0
                l(3) =   1
                l(4) =   1
     Q(r) pseudized with 0 coefficients 


     PseudoPot. # 6 for H  read from file:
     /home/jonglee69/software/qe_pseudo/active/H.pbe-rrkjus_psl.1.0.0.UPF
     MD5 check sum: f52b6d4d1c606e5624b1dc7b2218f220
     Pseudo is Ultrasoft, Zval =  1.0
     Generated using "atomic" code by A. Dal Corso  v.5.1
     Using radial grid of  929 points,  2 beta functions with: 
                l(1) =   0
                l(2) =   0
     Q(r) pseudized with 0 coefficients 


     atomic species   valence    mass     pseudopotential
     Ti               12.00    47.86700     Ti( 1.00)
     V                13.00    50.94150     V ( 1.00)
     Cr               14.00    51.99610     Cr( 1.00)
     C                 4.00    12.01100     C ( 1.00)
     O                 6.00    15.99900     O ( 1.00)
     H                 1.00     1.00800     H ( 1.00)

     No symmetry found



   Cartesian axes

     site n.     atom                  positions (alat units)
         1        Ti     tau(   1) = (   0.0027241   0.0078275   1.9307631  )
         2        Ti     tau(   2) = (   0.0034782   0.9983452   1.3825601  )
         3        Ti     tau(   3) = (   0.2504217   0.4972760   1.6355726  )
         4        Ti     tau(   4) = (   1.0004162   0.2502092   1.1308999  )
         5        Ti     tau(   5) = (   0.9998797   0.7484124   1.1333933  )
         6        Ti     tau(   6) = (   0.5034692   0.7509349   1.1331335  )
         7        Ti     tau(   7) = (   0.9993646   0.2506259   1.6379645  )
         8        Ti     tau(   8) = (   1.0006470   0.7472275   1.6346066  )
         9        Ti     tau(   9) = (   0.5023212   0.7476256   1.6350685  )
        10        Ti     tau(  10) = (   0.2542287   0.7477060   1.8900370  )
        11        Ti     tau(  11) = (   0.7501646   0.7510143   1.8823951  )
        12        V      tau(  12) = (   0.9989257   0.4938063   1.8723385  )
        13        V      tau(  13) = (   0.5036571   0.4920421   1.8693369  )
        14        V      tau(  14) = (   0.4949023   0.5028578   1.3846082  )
        15        V      tau(  15) = (   0.2612204   0.0062110   1.1348458  )
        16        V      tau(  16) = (   0.2569530   0.4933049   1.1330525  )
        17        V      tau(  17) = (   0.2497574  -0.0004122   1.6333484  )
        18        V      tau(  18) = (   0.7516367   0.4992040   1.6463212  )
        19        V      tau(  19) = (   0.5026794   0.2481493   1.6247502  )
        20        V      tau(  20) = (   0.2512965   0.7487352   1.3816098  )
        21        V      tau(  21) = (   0.7540434   0.7335087   1.3813327  )
        22        Cr     tau(  22) = (   0.5032751   0.0080360   1.8560897  )
        23        Cr     tau(  23) = (   0.0140774   0.4988843   1.3753030  )
        24        Cr     tau(  24) = (   0.4976303   0.9858838   1.3922529  )
        25        Cr     tau(  25) = (   0.7402072   0.0132094   1.1574584  )
        26        Cr     tau(  26) = (   0.7402975   0.4842830   1.1150280  )
        27        Cr     tau(  27) = (   0.7526197   0.9933190   1.6158647  )
        28        Cr     tau(  28) = (   0.5032222   0.2477881   1.1633736  )
        29        Cr     tau(  29) = (   0.2626842   0.2461495   1.8610903  )
        30        Cr     tau(  30) = (   0.7404402   0.2430436   1.8583378  )
        31        Cr     tau(  31) = (   0.2394291   0.2525026   1.3872068  )
        32        Cr     tau(  32) = (   0.7639965   0.2684841   1.3914711  )
        33        C      tau(  33) = (   0.9989409   0.0014776   1.1332587  )
        34        C      tau(  34) = (   0.9991086   0.4976511   1.1335931  )
        35        C      tau(  35) = (   0.5042228   0.0078878   1.1358354  )
        36        C      tau(  36) = (   0.5022840   0.4915266   1.1330039  )
        37        C      tau(  37) = (   0.9999185  -0.0005666   1.6341865  )
        38        C      tau(  38) = (   0.9975573   0.4984710   1.6356096  )
        39        C      tau(  39) = (   0.5030034   0.0006551   1.6318992  )
        40        C      tau(  40) = (   0.5040603   0.4939486   1.6347170  )
        41        C      tau(  41) = (   0.2613468   0.0082862   1.8916182  )
        42        C      tau(  42) = (   0.2532031   0.4890139   1.8966142  )
        43        C      tau(  43) = (   0.7440829   0.0082795   1.8892502  )
        44        C      tau(  44) = (   0.7496796   0.4911609   1.8934663  )
        45        C      tau(  45) = (   0.2569398   0.0020909   1.3837513  )
        46        C      tau(  46) = (   0.2516522   0.4976480   1.3809888  )
        47        C      tau(  47) = (   0.7451983   0.0022457   1.3849398  )
        48        C      tau(  48) = (   0.7555270   0.4962905   1.3811154  )
        49        C      tau(  49) = (   1.0009063   0.2555741   1.8943304  )
        50        C      tau(  50) = (   1.0004614   0.7412464   1.9004513  )
        51        C      tau(  51) = (   0.5022109   0.2461856   1.8847158  )
        52        C      tau(  52) = (   0.5034593   0.7489337   1.8956709  )
        53        C      tau(  53) = (   0.0017630   0.2559546   1.3841847  )
        54        C      tau(  54) = (   0.0023961   0.7435240   1.3827774  )
        55        C      tau(  55) = (   0.5036096   0.2458799   1.3861030  )
        56        C      tau(  56) = (   0.5028369   0.7471716   1.3839495  )
        57        C      tau(  57) = (   0.2592298   0.2490482   1.1332349  )
        58        C      tau(  58) = (   0.2526798   0.7492058   1.1360606  )
        59        C      tau(  59) = (   0.7426340   0.2484466   1.1337335  )
        60        C      tau(  60) = (   0.7504967   0.7475905   1.1372594  )
        61        C      tau(  61) = (   0.2548849   0.2453580   1.6338949  )
        62        C      tau(  62) = (   0.2512294   0.7511369   1.6323324  )
        63        C      tau(  63) = (   0.7475236   0.2468832   1.6328352  )
        64        C      tau(  64) = (   0.7519253   0.7472332   1.6314797  )
        65        C      tau(  65) = (   0.2574362   0.7286900   2.1593366  )
        66        O      tau(  66) = (   0.2659539   0.7024228   2.2937865  )
        67        O      tau(  67) = (   0.9978630   0.0059629   2.1526786  )
        68        H      tau(  68) = (   0.9115077   0.0534734   2.2137496  )

     number of k points=     1  Marzari-Vanderbilt smearing, width (Ry)=  0.0200
                       cart. coord. in units 2pi/alat
        k(    1) = (   0.0000000   0.0000000   0.0000000), wk =   2.0000000

     Dense  grid:  1061746 G-vectors     FFT dimensions: ( 120, 120, 360)

     Smooth grid:   375290 G-vectors     FFT dimensions: (  80,  80, 240)

     Estimated max dynamical RAM per process >       6.26 GB

     Check: negative core charge=   -0.000005

     Initial potential from superposition of free atoms

     starting charge     538.9857, renormalised to     561.0000

     negative rho (up, down):  3.246E-02 0.000E+00
     Starting wfcs are  461 randomized atomic wfcs
     Checking if some PAW data can be deallocated... 

     total cpu time spent up to now is       11.7 secs

     Self-consistent Calculation

     iteration #  1     ecut=    60.00 Ry     beta= 0.30
     Davidson diagonalization with overlap
     ethr =  1.00E-02,  avg # of iterations =  2.0

     negative rho (up, down):  4.498E-02 0.000E+00

     total cpu time spent up to now is       25.6 secs

     total energy              =   -5310.52807076 Ry
     estimated scf accuracy    <     200.87663485 Ry

     iteration #  2     ecut=    60.00 Ry     beta= 0.30
     Davidson diagonalization with overlap
     ethr =  1.00E-02,  avg # of iterations =  7.0

     negative rho (up, down):  4.117E-02 0.000E+00

     total cpu time spent up to now is       36.9 secs

     total energy              =   -5218.40151300 Ry
     estimated scf accuracy    <    4263.81000347 Ry

     iteration #  3     ecut=    60.00 Ry     beta= 0.30
     Davidson diagonalization with overlap
     ethr =  1.00E-02,  avg # of iterations =  9.0

     negative rho (up, down):  3.201E-02 0.000E+00

     total cpu time spent up to now is       49.3 secs

     total energy              =   -5323.17153391 Ry
     estimated scf accuracy    <    2976.01248780 Ry

     iteration #  4     ecut=    60.00 Ry     beta= 0.30
     Davidson diagonalization with overlap
     ethr =  1.00E-02,  avg # of iterations =  9.0

     negative rho (up, down):  3.075E-02 0.000E+00

     total cpu time spent up to now is       59.9 secs

     total energy              =   -5383.45369162 Ry
     estimated scf accuracy    <     139.92760172 Ry

     iteration #  5     ecut=    60.00 Ry     beta= 0.30
     Davidson diagonalization with overlap
     ethr =  1.00E-02,  avg # of iterations =  1.0

     negative rho (up, down):  3.204E-02 0.000E+00

     total cpu time spent up to now is       66.6 secs

     total energy              =   -5385.92117890 Ry
     estimated scf accuracy    <      28.52072809 Ry

     iteration #  6     ecut=    60.00 Ry     beta= 0.30
     Davidson diagonalization with overlap
     ethr =  5.08E-03,  avg # of iterations =  2.0

     negative rho (up, down):  3.369E-02 0.000E+00

     total cpu time spent up to now is       74.0 secs

     total energy              =   -5386.38424309 Ry
     estimated scf accuracy    <      30.18937035 Ry

     iteration #  7     ecut=    60.00 Ry     beta= 0.30
     Davidson diagonalization with overlap
     ethr =  5.08E-03,  avg # of iterations =  1.0

     negative rho (up, down):  3.521E-02 0.000E+00

     total cpu time spent up to now is       80.9 secs

     total energy              =   -5385.77790611 Ry
     estimated scf accuracy    <      18.88317391 Ry

     iteration #  8     ecut=    60.00 Ry     beta= 0.30
     Davidson diagonalization with overlap
     ethr =  3.37E-03,  avg # of iterations =  2.0

     negative rho (up, down):  3.602E-02 0.000E+00

     total cpu time spent up to now is       88.0 secs

     total energy              =   -5385.52990435 Ry
     estimated scf accuracy    <      14.82943661 Ry

     iteration #  9     ecut=    60.00 Ry     beta= 0.30
     Davidson diagonalization with overlap
     ethr =  2.64E-03,  avg # of iterations =  5.0

     negative rho (up, down):  3.622E-02 0.000E+00

     total cpu time spent up to now is       96.1 secs

     total energy              =   -5385.57034197 Ry
     estimated scf accuracy    <      21.02720268 Ry

     iteration # 10     ecut=    60.00 Ry     beta= 0.30
     Davidson diagonalization with overlap
     ethr =  2.64E-03,  avg # of iterations =  2.0

     negative rho (up, down):  3.705E-02 0.000E+00

     total cpu time spent up to now is      103.5 secs

     total energy              =   -5385.83957663 Ry
     estimated scf accuracy    <       7.77863820 Ry

     iteration # 11     ecut=    60.00 Ry     beta= 0.30
     Davidson diagonalization with overlap
     ethr =  1.39E-03,  avg # of iterations =  6.0

     negative rho (up, down):  3.616E-02 0.000E+00

     total cpu time spent up to now is      112.7 secs

     total energy              =   -5386.36368804 Ry
     estimated scf accuracy    <       5.06029472 Ry

     iteration # 12     ecut=    60.00 Ry     beta= 0.30
     Davidson diagonalization with overlap
     ethr =  9.02E-04,  avg # of iterations =  2.0

     negative rho (up, down):  3.577E-02 0.000E+00

     total cpu time spent up to now is      119.9 secs

     total energy              =   -5386.46709078 Ry
     estimated scf accuracy    <       2.49315356 Ry

     iteration # 13     ecut=    60.00 Ry     beta= 0.30
     Davidson diagonalization with overlap
     ethr =  4.44E-04,  avg # of iterations = 10.0

     negative rho (up, down):  3.525E-02 0.000E+00

     total cpu time spent up to now is      129.4 secs

     total energy              =   -5386.52230341 Ry
     estimated scf accuracy    <       0.92987962 Ry

     iteration # 14     ecut=    60.00 Ry     beta= 0.30
     Davidson diagonalization with overlap
     ethr =  1.66E-04,  avg # of iterations = 13.0

     negative rho (up, down):  3.541E-02 0.000E+00

     total cpu time spent up to now is      140.9 secs

     total energy              =   -5386.50931733 Ry
     estimated scf accuracy    <       2.15402850 Ry

     iteration # 15     ecut=    60.00 Ry     beta= 0.30
     Davidson diagonalization with overlap
     ethr =  1.66E-04,  avg # of iterations =  2.0

     negative rho (up, down):  3.533E-02 0.000E+00

     total cpu time spent up to now is      148.5 secs

     total energy              =   -5386.52885599 Ry
     estimated scf accuracy    <       1.34589980 Ry

     iteration # 16     ecut=    60.00 Ry     beta= 0.30
     Davidson diagonalization with overlap
     ethr =  1.66E-04,  avg # of iterations =  2.0

     negative rho (up, down):  3.541E-02 0.000E+00

     total cpu time spent up to now is      155.6 secs

     total energy              =   -5386.52809822 Ry
     estimated scf accuracy    <       0.68152719 Ry

     iteration # 17     ecut=    60.00 Ry     beta= 0.30
     Davidson diagonalization with overlap
     ethr =  1.21E-04,  avg # of iterations =  2.0

     negative rho (up, down):  3.532E-02 0.000E+00

     total cpu time spent up to now is      162.7 secs

     total energy              =   -5386.52263077 Ry
     estimated scf accuracy    <       1.21036877 Ry

     iteration # 18     ecut=    60.00 Ry     beta= 0.30
     Davidson diagonalization with overlap
     ethr =  1.21E-04,  avg # of iterations =  1.0

     negative rho (up, down):  3.531E-02 0.000E+00

     total cpu time spent up to now is      169.7 secs

     total energy              =   -5386.55678389 Ry
     estimated scf accuracy    <       0.28064496 Ry

     iteration # 19     ecut=    60.00 Ry     beta= 0.30
     Davidson diagonalization with overlap
     ethr =  5.00E-05,  avg # of iterations =  2.0

     negative rho (up, down):  3.538E-02 0.000E+00

     total cpu time spent up to now is      177.0 secs

     total energy              =   -5386.55922998 Ry
     estimated scf accuracy    <       0.15906077 Ry

     iteration # 20     ecut=    60.00 Ry     beta= 0.30
     Davidson diagonalization with overlap
     ethr =  2.84E-05,  avg # of iterations =  2.0

     negative rho (up, down):  3.535E-02 0.000E+00

     total cpu time spent up to now is      184.4 secs

     total energy              =   -5386.56109952 Ry
     estimated scf accuracy    <       0.16515947 Ry

     iteration # 21     ecut=    60.00 Ry     beta= 0.30
     Davidson diagonalization with overlap
     ethr =  2.84E-05,  avg # of iterations =  1.0

     negative rho (up, down):  3.537E-02 0.000E+00

     total cpu time spent up to now is      190.9 secs

     total energy              =   -5386.56363487 Ry
     estimated scf accuracy    <       0.15871130 Ry

     iteration # 22     ecut=    60.00 Ry     beta= 0.30
     Davidson diagonalization with overlap
     ethr =  2.83E-05,  avg # of iterations =  2.0

     negative rho (up, down):  3.533E-02 0.000E+00

     total cpu time spent up to now is      197.6 secs

     total energy              =   -5386.56638301 Ry
     estimated scf accuracy    <       0.07140381 Ry

     iteration # 23     ecut=    60.00 Ry     beta= 0.30
     Davidson diagonalization with overlap
     c_bands:  1 eigenvalues not converged
     ethr =  1.27E-05,  avg # of iterations = 20.0

     negative rho (up, down):  3.531E-02 0.000E+00

     total cpu time spent up to now is      209.5 secs

     total energy              =   -5386.56729789 Ry
     estimated scf accuracy    <       0.05166452 Ry

     iteration # 24     ecut=    60.00 Ry     beta= 0.30
     Davidson diagonalization with overlap
     ethr =  9.21E-06,  avg # of iterations = 19.0

     negative rho (up, down):  3.529E-02 0.000E+00

     total cpu time spent up to now is      221.2 secs

     total energy              =   -5386.56699790 Ry
     estimated scf accuracy    <       0.09121368 Ry

     iteration # 25     ecut=    60.00 Ry     beta= 0.30
     Davidson diagonalization with overlap
     ethr =  9.21E-06,  avg # of iterations =  1.0

     negative rho (up, down):  3.529E-02 0.000E+00

     total cpu time spent up to now is      228.1 secs

     total energy              =   -5386.56709765 Ry
     estimated scf accuracy    <       0.12951064 Ry

     iteration # 26     ecut=    60.00 Ry     beta= 0.30
     Davidson diagonalization with overlap
     ethr =  9.21E-06,  avg # of iterations =  2.0

     negative rho (up, down):  3.523E-02 0.000E+00

     total cpu time spent up to now is      235.6 secs

     total energy              =   -5386.56881599 Ry
     estimated scf accuracy    <       0.03484062 Ry

     iteration # 27     ecut=    60.00 Ry     beta= 0.30
     Davidson diagonalization with overlap
     ethr =  6.21E-06,  avg # of iterations =  1.0

     negative rho (up, down):  3.523E-02 0.000E+00

     total cpu time spent up to now is      242.5 secs

     total energy              =   -5386.56955493 Ry
     estimated scf accuracy    <       0.00930233 Ry

     iteration # 28     ecut=    60.00 Ry     beta= 0.30
     Davidson diagonalization with overlap
     c_bands:  2 eigenvalues not converged
     ethr =  1.66E-06,  avg # of iterations = 20.0

     negative rho (up, down):  3.524E-02 0.000E+00

     total cpu time spent up to now is      255.4 secs

     total energy              =   -5386.56951962 Ry
     estimated scf accuracy    <       0.01820309 Ry

     iteration # 29     ecut=    60.00 Ry     beta= 0.30
     Davidson diagonalization with overlap
     c_bands:  1 eigenvalues not converged
     ethr =  1.66E-06,  avg # of iterations = 20.0

     negative rho (up, down):  3.523E-02 0.000E+00

     total cpu time spent up to now is      267.5 secs

     total energy              =   -5386.56982957 Ry
     estimated scf accuracy    <       0.00897847 Ry

     iteration # 30     ecut=    60.00 Ry     beta= 0.30
     Davidson diagonalization with overlap
     ethr =  1.60E-06,  avg # of iterations =  1.0

     negative rho (up, down):  3.523E-02 0.000E+00

     total cpu time spent up to now is      274.3 secs

     total energy              =   -5386.56998486 Ry
     estimated scf accuracy    <       0.00464125 Ry

     iteration # 31     ecut=    60.00 Ry     beta= 0.30
     Davidson diagonalization with overlap
     ethr =  8.27E-07,  avg # of iterations =  1.0

     negative rho (up, down):  3.521E-02 0.000E+00

     total cpu time spent up to now is      281.1 secs

     total energy              =   -5386.57006838 Ry
     estimated scf accuracy    <       0.00401434 Ry

     iteration # 32     ecut=    60.00 Ry     beta= 0.30
     Davidson diagonalization with overlap
     ethr =  7.16E-07,  avg # of iterations =  1.0

     negative rho (up, down):  3.521E-02 0.000E+00

     total cpu time spent up to now is      287.8 secs

     total energy              =   -5386.57015160 Ry
     estimated scf accuracy    <       0.00208310 Ry

     iteration # 33     ecut=    60.00 Ry     beta= 0.30
     Davidson diagonalization with overlap
     ethr =  3.71E-07,  avg # of iterations =  1.0

     negative rho (up, down):  3.520E-02 0.000E+00

     total cpu time spent up to now is      294.4 secs

     total energy              =   -5386.57015566 Ry
     estimated scf accuracy    <       0.00126577 Ry

     iteration # 34     ecut=    60.00 Ry     beta= 0.30
     Davidson diagonalization with overlap
     ethr =  2.26E-07,  avg # of iterations =  2.0

     negative rho (up, down):  3.520E-02 0.000E+00

     total cpu time spent up to now is      301.4 secs

     total energy              =   -5386.57009174 Ry
     estimated scf accuracy    <       0.00593055 Ry

     iteration # 35     ecut=    60.00 Ry     beta= 0.30
     Davidson diagonalization with overlap
     ethr =  2.26E-07,  avg # of iterations =  2.0

     negative rho (up, down):  3.519E-02 0.000E+00

     total cpu time spent up to now is      308.6 secs

     total energy              =   -5386.57012544 Ry
     estimated scf accuracy    <       0.00590335 Ry

     iteration # 36     ecut=    60.00 Ry     beta= 0.30
     Davidson diagonalization with overlap
     ethr =  2.26E-07,  avg # of iterations =  1.0

     negative rho (up, down):  3.519E-02 0.000E+00

     total cpu time spent up to now is      315.3 secs

     total energy              =   -5386.57020773 Ry
     estimated scf accuracy    <       0.00134266 Ry

     iteration # 37     ecut=    60.00 Ry     beta= 0.30
     Davidson diagonalization with overlap
     ethr =  2.26E-07,  avg # of iterations =  1.0

     negative rho (up, down):  3.518E-02 0.000E+00

     total cpu time spent up to now is      322.1 secs

     total energy              =   -5386.57024364 Ry
     estimated scf accuracy    <       0.00032373 Ry

     iteration # 38     ecut=    60.00 Ry     beta= 0.30
     Davidson diagonalization with overlap
     ethr =  5.77E-08,  avg # of iterations =  2.0

     negative rho (up, down):  3.519E-02 0.000E+00

     total cpu time spent up to now is      329.3 secs

     total energy              =   -5386.57022223 Ry
     estimated scf accuracy    <       0.00105353 Ry

     iteration # 39     ecut=    60.00 Ry     beta= 0.30
     Davidson diagonalization with overlap
     ethr =  5.77E-08,  avg # of iterations =  4.0

     negative rho (up, down):  3.518E-02 0.000E+00

     total cpu time spent up to now is      337.1 secs

     total energy              =   -5386.57022631 Ry
     estimated scf accuracy    <       0.00115539 Ry

     iteration # 40     ecut=    60.00 Ry     beta= 0.30
     Davidson diagonalization with overlap
     ethr =  5.77E-08,  avg # of iterations =  5.0

     negative rho (up, down):  3.518E-02 0.000E+00

     total cpu time spent up to now is      344.7 secs

     total energy              =   -5386.57024297 Ry
     estimated scf accuracy    <       0.00050862 Ry

     iteration # 41     ecut=    60.00 Ry     beta= 0.30
     Davidson diagonalization with overlap
     ethr =  5.77E-08,  avg # of iterations =  2.0

     negative rho (up, down):  3.518E-02 0.000E+00

     total cpu time spent up to now is      351.8 secs

     total energy              =   -5386.57025408 Ry
     estimated scf accuracy    <       0.00033694 Ry

     iteration # 42     ecut=    60.00 Ry     beta= 0.30
     Davidson diagonalization with overlap
     ethr =  5.77E-08,  avg # of iterations =  1.0

     negative rho (up, down):  3.518E-02 0.000E+00

     total cpu time spent up to now is      358.3 secs

     total energy              =   -5386.57026084 Ry
     estimated scf accuracy    <       0.00018564 Ry

     iteration # 43     ecut=    60.00 Ry     beta= 0.30
     Davidson diagonalization with overlap
     ethr =  3.31E-08,  avg # of iterations =  1.0

     negative rho (up, down):  3.517E-02 0.000E+00

     total cpu time spent up to now is      365.3 secs

     total energy              =   -5386.57026444 Ry
     estimated scf accuracy    <       0.00007921 Ry

     iteration # 44     ecut=    60.00 Ry     beta= 0.30
     Davidson diagonalization with overlap
     ethr =  1.41E-08,  avg # of iterations =  5.0

     negative rho (up, down):  3.517E-02 0.000E+00

     total cpu time spent up to now is      373.2 secs

     total energy              =   -5386.57025958 Ry
     estimated scf accuracy    <       0.00037561 Ry

     iteration # 45     ecut=    60.00 Ry     beta= 0.30
     Davidson diagonalization with overlap
     ethr =  1.41E-08,  avg # of iterations =  2.0

     negative rho (up, down):  3.517E-02 0.000E+00

     total cpu time spent up to now is      380.6 secs

     total energy              =   -5386.57026144 Ry
     estimated scf accuracy    <       0.00038597 Ry

     iteration # 46     ecut=    60.00 Ry     beta= 0.30
     Davidson diagonalization with overlap
     ethr =  1.41E-08,  avg # of iterations =  2.0

     negative rho (up, down):  3.517E-02 0.000E+00

     total cpu time spent up to now is      387.6 secs

     total energy              =   -5386.57026575 Ry
     estimated scf accuracy    <       0.00013911 Ry

     iteration # 47     ecut=    60.00 Ry     beta= 0.30
     Davidson diagonalization with overlap
     ethr =  1.41E-08,  avg # of iterations =  1.0

     negative rho (up, down):  3.517E-02 0.000E+00

     total cpu time spent up to now is      394.3 secs

     total energy              =   -5386.57026957 Ry
     estimated scf accuracy    <       0.00002880 Ry

     iteration # 48     ecut=    60.00 Ry     beta= 0.30
     Davidson diagonalization with overlap
     ethr =  5.13E-09,  avg # of iterations =  2.0

     negative rho (up, down):  3.517E-02 0.000E+00

     total cpu time spent up to now is      402.1 secs

     total energy              =   -5386.57026931 Ry
     estimated scf accuracy    <       0.00004097 Ry

     iteration # 49     ecut=    60.00 Ry     beta= 0.30
     Davidson diagonalization with overlap
     ethr =  5.13E-09,  avg # of iterations =  4.0

     negative rho (up, down):  3.517E-02 0.000E+00

     total cpu time spent up to now is      410.4 secs

     total energy              =   -5386.57026806 Ry
     estimated scf accuracy    <       0.00012790 Ry

     iteration # 50     ecut=    60.00 Ry     beta= 0.30
     Davidson diagonalization with overlap
     ethr =  5.13E-09,  avg # of iterations =  5.0

     negative rho (up, down):  3.517E-02 0.000E+00

     total cpu time spent up to now is      421.6 secs

     total energy              =   -5386.57026913 Ry
     estimated scf accuracy    <       0.00004943 Ry

     iteration # 51     ecut=    60.00 Ry     beta= 0.30
     Davidson diagonalization with overlap
     ethr =  5.13E-09,  avg # of iterations =  2.0

     negative rho (up, down):  3.517E-02 0.000E+00

     total cpu time spent up to now is      429.3 secs

     total energy              =   -5386.57026966 Ry
     estimated scf accuracy    <       0.00005792 Ry

     iteration # 52     ecut=    60.00 Ry     beta= 0.30
     Davidson diagonalization with overlap
     ethr =  5.13E-09,  avg # of iterations =  1.0

     negative rho (up, down):  3.517E-02 0.000E+00

     total cpu time spent up to now is      436.0 secs

     total energy              =   -5386.57027074 Ry
     estimated scf accuracy    <       0.00002549 Ry

     iteration # 53     ecut=    60.00 Ry     beta= 0.30
     Davidson diagonalization with overlap
     ethr =  4.54E-09,  avg # of iterations =  2.0

     negative rho (up, down):  3.517E-02 0.000E+00

     total cpu time spent up to now is      443.3 secs

     total energy              =   -5386.57027161 Ry
     estimated scf accuracy    <       0.00001015 Ry

     iteration # 54     ecut=    60.00 Ry     beta= 0.30
     Davidson diagonalization with overlap
     ethr =  1.81E-09,  avg # of iterations =  2.0

     negative rho (up, down):  3.517E-02 0.000E+00

     total cpu time spent up to now is      450.7 secs

     total energy              =   -5386.57027125 Ry
     estimated scf accuracy    <       0.00002593 Ry

     iteration # 55     ecut=    60.00 Ry     beta= 0.30
     Davidson diagonalization with overlap
     ethr =  1.81E-09,  avg # of iterations =  2.0

     negative rho (up, down):  3.517E-02 0.000E+00

     total cpu time spent up to now is      458.3 secs

     total energy              =   -5386.57027124 Ry
     estimated scf accuracy    <       0.00003896 Ry

     iteration # 56     ecut=    60.00 Ry     beta= 0.30
     Davidson diagonalization with overlap
     ethr =  1.81E-09,  avg # of iterations =  1.0

     negative rho (up, down):  3.517E-02 0.000E+00

     total cpu time spent up to now is      465.3 secs

     total energy              =   -5386.57027148 Ry
     estimated scf accuracy    <       0.00001969 Ry

     iteration # 57     ecut=    60.00 Ry     beta= 0.30
     Davidson diagonalization with overlap
     ethr =  1.81E-09,  avg # of iterations =  1.0

     negative rho (up, down):  3.517E-02 0.000E+00

     total cpu time spent up to now is      472.4 secs

     total energy              =   -5386.57027195 Ry
     estimated scf accuracy    <       0.00000503 Ry

     iteration # 58     ecut=    60.00 Ry     beta= 0.30
     Davidson diagonalization with overlap
     ethr =  8.97E-10,  avg # of iterations =  1.0

     negative rho (up, down):  3.517E-02 0.000E+00

     total cpu time spent up to now is      479.4 secs

     total energy              =   -5386.57027213 Ry
     estimated scf accuracy    <       0.00000240 Ry

     iteration # 59     ecut=    60.00 Ry     beta= 0.30
     Davidson diagonalization with overlap
     ethr =  4.27E-10,  avg # of iterations =  2.0

     negative rho (up, down):  3.517E-02 0.000E+00

     total cpu time spent up to now is      486.4 secs

     total energy              =   -5386.57027209 Ry
     estimated scf accuracy    <       0.00000587 Ry

     iteration # 60     ecut=    60.00 Ry     beta= 0.30
     Davidson diagonalization with overlap
     ethr =  4.27E-10,  avg # of iterations =  2.0

     negative rho (up, down):  3.517E-02 0.000E+00

     total cpu time spent up to now is      493.6 secs

     total energy              =   -5386.57027213 Ry
     estimated scf accuracy    <       0.00000253 Ry

     iteration # 61     ecut=    60.00 Ry     beta= 0.30
     Davidson diagonalization with overlap
     ethr =  4.27E-10,  avg # of iterations =  2.0

     negative rho (up, down):  3.517E-02 0.000E+00

     total cpu time spent up to now is      500.7 secs

     total energy              =   -5386.57027202 Ry
     estimated scf accuracy    <       0.00000775 Ry

     iteration # 62     ecut=    60.00 Ry     beta= 0.30
     Davidson diagonalization with overlap
     ethr =  4.27E-10,  avg # of iterations =  2.0

     negative rho (up, down):  3.517E-02 0.000E+00

     total cpu time spent up to now is      507.8 secs

     total energy              =   -5386.57027212 Ry
     estimated scf accuracy    <       0.00000455 Ry

     iteration # 63     ecut=    60.00 Ry     beta= 0.30
     Davidson diagonalization with overlap
     ethr =  4.27E-10,  avg # of iterations =  1.0

     negative rho (up, down):  3.517E-02 0.000E+00

     total cpu time spent up to now is      514.5 secs

     total energy              =   -5386.57027223 Ry
     estimated scf accuracy    <       0.00000206 Ry

     iteration # 64     ecut=    60.00 Ry     beta= 0.30
     Davidson diagonalization with overlap
     ethr =  3.66E-10,  avg # of iterations =  1.0

     negative rho (up, down):  3.517E-02 0.000E+00

     total cpu time spent up to now is      521.4 secs

     total energy              =   -5386.57027226 Ry
     estimated scf accuracy    <       0.00000140 Ry

     iteration # 65     ecut=    60.00 Ry     beta= 0.30
     Davidson diagonalization with overlap
     ethr =  2.49E-10,  avg # of iterations =  1.0

     negative rho (up, down):  3.517E-02 0.000E+00

     total cpu time spent up to now is      528.1 secs

     total energy              =   -5386.57027224 Ry
     estimated scf accuracy    <       0.00000424 Ry

     iteration # 66     ecut=    60.00 Ry     beta= 0.30
     Davidson diagonalization with overlap
     ethr =  2.49E-10,  avg # of iterations =  1.0

     negative rho (up, down):  3.517E-02 0.000E+00

     total cpu time spent up to now is      534.7 secs

     total energy              =   -5386.57027224 Ry
     estimated scf accuracy    <       0.00000231 Ry

     iteration # 67     ecut=    60.00 Ry     beta= 0.30
     Davidson diagonalization with overlap
     ethr =  2.49E-10,  avg # of iterations =  1.0

     negative rho (up, down):  3.517E-02 0.000E+00

     total cpu time spent up to now is      541.6 secs

     total energy              =   -5386.57027228 Ry
     estimated scf accuracy    <       0.00000109 Ry

     iteration # 68     ecut=    60.00 Ry     beta= 0.30
     Davidson diagonalization with overlap
     ethr =  1.94E-10,  avg # of iterations =  1.0

     negative rho (up, down):  3.517E-02 0.000E+00

     total cpu time spent up to now is      548.3 secs

     total energy              =   -5386.57027232 Ry
     estimated scf accuracy    <       0.00000033 Ry

     iteration # 69     ecut=    60.00 Ry     beta= 0.30
     Davidson diagonalization with overlap
     ethr =  5.82E-11,  avg # of iterations =  1.0

     negative rho (up, down):  3.517E-02 0.000E+00

     total cpu time spent up to now is      555.2 secs

     total energy              =   -5386.57027232 Ry
     estimated scf accuracy    <       0.00000032 Ry

     iteration # 70     ecut=    60.00 Ry     beta= 0.30
     Davidson diagonalization with overlap
     ethr =  5.67E-11,  avg # of iterations =  1.0

     negative rho (up, down):  3.517E-02 0.000E+00

     total cpu time spent up to now is      562.2 secs

     total energy              =   -5386.57027233 Ry
     estimated scf accuracy    <       0.00000012 Ry

     iteration # 71     ecut=    60.00 Ry     beta= 0.30
     Davidson diagonalization with overlap
     ethr =  2.21E-11,  avg # of iterations =  2.0

     negative rho (up, down):  3.516E-02 0.000E+00

     total cpu time spent up to now is      569.5 secs

     total energy              =   -5386.57027232 Ry
     estimated scf accuracy    <       0.00000040 Ry

     iteration # 72     ecut=    60.00 Ry     beta= 0.30
     Davidson diagonalization with overlap
     ethr =  2.21E-11,  avg # of iterations =  2.0

     negative rho (up, down):  3.516E-02 0.000E+00

     total cpu time spent up to now is      576.5 secs

     total energy              =   -5386.57027232 Ry
     estimated scf accuracy    <       0.00000043 Ry

     iteration # 73     ecut=    60.00 Ry     beta= 0.30
     Davidson diagonalization with overlap
     ethr =  2.21E-11,  avg # of iterations =  2.0

     negative rho (up, down):  3.516E-02 0.000E+00

     total cpu time spent up to now is      583.8 secs

     total energy              =   -5386.57027233 Ry
     estimated scf accuracy    <       0.00000023 Ry

     iteration # 74     ecut=    60.00 Ry     beta= 0.30
     Davidson diagonalization with overlap
     ethr =  2.21E-11,  avg # of iterations =  1.0

     negative rho (up, down):  3.516E-02 0.000E+00

     total cpu time spent up to now is      591.4 secs

     End of self-consistent calculation

          k = 0.0000 0.0000 0.0000 ( 46961 PWs)   bands (ev):

   -69.5579 -69.5280 -69.5203 -69.5093 -69.4888 -69.4786 -69.4549 -69.4413
   -69.4398 -69.4302 -69.2453 -62.0504 -62.0395 -62.0365 -62.0066 -61.9359
   -61.9295 -61.9193 -61.9184 -61.8177 -61.7449 -54.3640 -54.2944 -54.2705
   -54.1446 -53.9765 -53.9708 -53.9345 -53.9291 -53.9151 -53.8676 -53.7347
   -41.0070 -40.9696 -40.9623 -40.9542 -40.9474 -40.9397 -40.9289 -40.9136
   -40.8973 -40.8931 -40.8844 -40.8804 -40.8672 -40.8609 -40.8455 -40.8382
   -40.8284 -40.8211 -40.8088 -40.8073 -40.8019 -40.7856 -40.7820 -40.7739
   -40.7513 -40.7438 -40.7350 -40.7297 -40.7056 -40.6842 -40.6723 -40.6044
   -40.4666 -36.0253 -36.0039 -35.9757 -35.9731 -35.9567 -35.9361 -35.9169
   -35.8977 -35.8696 -35.8635 -35.8466 -35.8440 -35.8393 -35.8373 -35.8306
   -35.8073 -35.8006 -35.7906 -35.7840 -35.7752 -35.7536 -35.7474 -35.7422
   -35.7380 -35.7079 -35.6928 -35.6896 -35.6508 -35.5855 -35.4847 -30.7881
   -30.7237 -30.6792 -30.6139 -30.5674 -30.5551 -30.5405 -30.5402 -30.5311
   -30.5221 -30.4559 -30.4387 -30.4119 -30.3990 -30.3603 -30.3503 -30.3374
   -30.3344 -30.3256 -30.3112 -30.2878 -30.2520 -30.2405 -30.2180 -30.2135
   -30.1862 -30.1664 -30.1392 -30.1324 -30.1091 -30.0827 -30.0406 -29.9889
   -21.6546 -16.2524 -10.7221  -9.6541  -9.2552  -9.1763  -9.0604  -8.9274
    -8.5884  -8.3680  -8.3322  -8.2771  -8.2248  -8.1423  -8.0671  -7.9549
    -7.9203  -7.7837  -7.6996  -7.6365  -7.5540  -7.5195  -7.4539  -7.4339
    -7.3921  -7.3667  -7.2836  -7.2211  -7.1217  -7.0485  -6.8614  -6.7986
    -6.7478  -6.6904  -6.4348  -4.2843  -4.2657  -3.9967  -3.9020  -3.8720
    -3.7988  -3.6813  -3.1609  -2.9416  -2.8173  -2.7357  -2.7175  -2.6143
    -2.5813  -2.4640  -2.4518  -2.3851  -2.3211  -2.3142  -2.1750  -2.0682
    -2.0260  -1.9533  -1.8039  -1.7907  -1.7593  -1.7262  -1.6363  -1.5263
    -1.4787  -1.4339  -1.4295  -1.3698  -1.3558  -1.3378  -1.3270  -1.3058
    -1.2922  -1.2878  -1.2647  -1.2552  -1.2161  -1.1833  -1.1614  -1.0709
    -1.0519  -1.0138  -0.9889  -0.9407  -0.9278  -0.8696  -0.8408  -0.7906
    -0.7750  -0.7532  -0.7306  -0.6940  -0.6609  -0.6437  -0.6331  -0.6089
    -0.5990  -0.5773  -0.5654  -0.5412  -0.5150  -0.4902  -0.4082  -0.3580
    -0.2978  -0.2851  -0.2099  -0.1619  -0.1272  -0.0598  -0.0295   0.0162
     0.0513   0.0722   0.1512   0.1917   0.2359   0.3071   0.3298   0.4885
     0.5138   0.6312   0.7247   0.7636   0.7764   0.9329   0.9862   1.0284
     1.1197   1.1631   1.2578   1.2923   1.3364   1.4302   1.4504   1.4948
     1.5410   1.7701   1.7919   1.8686   1.8946   1.9522   2.1626   2.2060
     2.2893   2.6064   2.6813   2.7508   2.7836   2.8225   2.9123   2.9777
     2.9934   3.0245   3.0899   3.1200   3.1457   3.1641   3.2216   3.2602
     3.2680   3.2913   3.3089   3.3562   3.3751   3.4017   3.4094   3.4423
     3.4582   3.5013   3.5303   3.5696   3.6290   3.6497   3.6760   3.7277
     3.7564   3.7936   3.8308   3.8656   3.9351   3.9585   3.9969   4.0212
     4.0588   4.0651   4.0996   4.1399   4.1617   4.1980   4.2327   4.2484
     4.2735   4.3106   4.3471   4.3972   4.4484   4.4580   4.4965   4.5250
     4.5820   4.6119   4.6410   4.6828   4.7240   4.7811   4.7940   4.8340
     4.8898

     the Fermi energy is     2.9955 ev

!    total energy              =   -5386.57027227 Ry
     estimated scf accuracy    <       0.00000008 Ry
     smearing contrib. (-TS)   =      -0.03621119 Ry
     internal energy E=F+TS    =   -5386.53406108 Ry

     The total energy is F=E-TS. E is the sum of the following terms:
     one-electron contribution =  -55877.63650637 Ry
     hartree contribution      =   27971.98939568 Ry
     xc contribution           =    -807.21866173 Ry
     ewald contribution        =   23549.15994659 Ry
     one-center paw contrib.   =    -222.82823525 Ry

     convergence has been achieved in  74 iterations

     negative rho (up, down):  3.516E-02 0.000E+00

     Forces acting on atoms (cartesian axes, Ry/au):

     atom    1 type  1   force =    -0.00175877   -0.00720680    0.01135393
     atom    2 type  1   force =    -0.00431227   -0.00488190    0.00581468
     atom    3 type  1   force =    -0.00524019    0.03009291   -0.00281113
     atom    4 type  1   force =     0.00004050   -0.01617715    0.02957540
     atom    5 type  1   force =    -0.00334619    0.01091029    0.00135614
     atom    6 type  1   force =     0.00825975   -0.00298502    0.02771950
     atom    7 type  1   force =     0.00060434   -0.02836416   -0.02267756
     atom    8 type  1   force =     0.01072989    0.02364258    0.00094385
     atom    9 type  1   force =    -0.01026238   -0.00671517   -0.02734175
     atom   10 type  1   force =    -0.00167839   -0.00112832   -0.00404930
     atom   11 type  1   force =     0.00404317    0.00228784   -0.01931357
     atom   12 type  2   force =     0.00556209   -0.00579543    0.02230152
     atom   13 type  2   force =    -0.00363843    0.00530118    0.00017678
     atom   14 type  2   force =     0.02445828   -0.00692155    0.01988350
     atom   15 type  2   force =    -0.01267585   -0.00034433    0.11396047
     atom   16 type  2   force =     0.00512136    0.00011354    0.09481757
     atom   17 type  2   force =    -0.04363610   -0.02668640   -0.01031938
     atom   18 type  2   force =     0.00198461    0.02034509   -0.02815223
     atom   19 type  2   force =    -0.01056295    0.01529922   -0.03039312
     atom   20 type  2   force =    -0.00050453   -0.01072982    0.00474800
     atom   21 type  2   force =     0.00797388    0.01642713   -0.00438419
     atom   22 type  3   force =     0.00563869   -0.02142657   -0.01203108
     atom   23 type  3   force =    -0.02319288   -0.01054922    0.00027457
     atom   24 type  3   force =     0.01674404    0.01375231   -0.01499668
     atom   25 type  3   force =     0.01651013   -0.01325138    0.06555029
     atom   26 type  3   force =    -0.00485978    0.01271761    0.12416994
     atom   27 type  3   force =     0.03233584   -0.00953386    0.01594011
     atom   28 type  3   force =    -0.00749177    0.00085286    0.03897949
     atom   29 type  3   force =     0.00564683    0.00981046   -0.02590845
     atom   30 type  3   force =     0.00037153   -0.00377219   -0.02201993
     atom   31 type  3   force =     0.00434172   -0.00299288   -0.01092513
     atom   32 type  3   force =    -0.00728605    0.00142551   -0.00753742
     atom   33 type  4   force =     0.00032983   -0.00701203   -0.03611625
     atom   34 type  4   force =     0.00943434    0.01263611   -0.00515865
     atom   35 type  4   force =    -0.00200177   -0.01712602   -0.02200079
     atom   36 type  4   force =     0.00135655    0.01090166   -0.03599705
     atom   37 type  4   force =     0.00279429    0.00047407    0.03636042
     atom   38 type  4   force =     0.00270356   -0.00553859    0.02355890
     atom   39 type  4   force =     0.00471801    0.00916920    0.03165159
     atom   40 type  4   force =    -0.00024054   -0.00311458    0.00768401
     atom   41 type  4   force =    -0.00098170    0.00018845    0.00299439
     atom   42 type  4   force =    -0.00457374   -0.00448802    0.00675982
     atom   43 type  4   force =    -0.00211348   -0.00078296    0.01273703
     atom   44 type  4   force =     0.00524337   -0.00026274    0.00309467
     atom   45 type  4   force =     0.00906618    0.00943879   -0.04483472
     atom   46 type  4   force =     0.00354468   -0.00017035   -0.04631766
     atom   47 type  4   force =    -0.00786582    0.00202521   -0.03533248
     atom   48 type  4   force =    -0.01487483   -0.01292274   -0.02523635
     atom   49 type  4   force =    -0.00469670    0.01119229   -0.02020331
     atom   50 type  4   force =    -0.00322180    0.00538238   -0.03405931
     atom   51 type  4   force =     0.00117793   -0.00900493    0.00368459
     atom   52 type  4   force =     0.00261976    0.00953085   -0.00586104
     atom   53 type  4   force =    -0.00241622    0.00076462   -0.02506074
     atom   54 type  4   force =    -0.00645898    0.00521291   -0.03750110
     atom   55 type  4   force =     0.00007389    0.00666307   -0.03098115
     atom   56 type  4   force =    -0.00195349   -0.00708345   -0.03049318
     atom   57 type  4   force =    -0.01568686    0.00823714   -0.02784845
     atom   58 type  4   force =    -0.00898577   -0.00575050   -0.03898161
     atom   59 type  4   force =     0.01481435    0.01179237   -0.03078212
     atom   60 type  4   force =     0.00198253   -0.01063932   -0.02321907
     atom   61 type  4   force =     0.00357911    0.00215926    0.02463413
     atom   62 type  4   force =     0.00268584   -0.00260010    0.03308786
     atom   63 type  4   force =     0.00244689   -0.00004548    0.01617817
     atom   64 type  4   force =    -0.00281617   -0.00407026    0.03661022
     atom   65 type  4   force =     0.00431358   -0.01131699    0.02071155
     atom   66 type  5   force =    -0.00422923    0.01043422   -0.03208408
     atom   67 type  5   force =    -0.00331807    0.00267754   -0.00625532
     atom   68 type  6   force =     0.00363035   -0.00046749   -0.00012774

     Total force =     0.084990     Total SCF correction =     0.000438

     BFGS Geometry Optimization
     Energy error            =      0.0E+00 Ry
     Gradient error          =      3.4E-02 Ry/Bohr

     number of scf cycles    =   1
     number of bfgs steps    =   0

     energy             new  =   -5386.5702722657 Ry

     new trust radius        =       0.0346321619 bohr
     new conv_thr            =       0.0000001000 Ry


ATOMIC_POSITIONS (angstrom)
Ti               0.0218862967        0.0617493034       16.1781141906
Ti               0.0291331002        8.3621570543       11.5803477355    0   0   0
Ti               2.0975368417        4.1651924041       13.6995846818    0   0   0
Ti               8.3795041056        2.0957563981        9.4724378689    0   0   0
Ti               8.3750099733        6.2687152092        9.4933225157    0   0   0
Ti               4.2170671874        6.2898439467        9.4911460380    0   0   0
Ti               8.3706959315        2.0992468883       13.7196199333    0   0   0
Ti               8.3814371399        6.2587905921       13.6914936631    0   0   0
Ti               4.2074509867        6.2621252961       13.6953624844    0   0   0
Ti               2.1285356332        6.2622013500       15.8288406219
Ti               6.2855319052        6.2917200142       15.7567542982
V                8.3699629018        4.1330635730       15.6945417499
V                4.2167149902        4.1241583630       15.6576927707
V                4.1453105473        4.2119457891       11.5975026988    0   0   0
V                2.1879867013        0.0520231596        9.5054883674    0   0   0
V                2.1522427348        4.1319303501        9.4904675789    0   0   0
V                2.0919720210       -0.0034525136       13.6809547049    0   0   0
V                6.2957223951        4.1813414611       13.7896152224    0   0   0
V                4.2104512702        2.0785028673       13.6089365586    0   0   0
V                2.1048639148        6.2714192178       11.5723879270    0   0   0
V                6.3158808164        6.1438819511       11.5700667150    0   0   0
Cr               4.2184252944        0.0559708540       15.5402736220
Cr               0.1179128009        4.1786640750       11.5195623927    0   0   0
Cr               4.1681598842        8.2577799257       11.6615352591    0   0   0
Cr               6.1999882077        0.1106418811        9.6948923906    0   0   0
Cr               6.2007452456        4.0563627707        9.3394942948    0   0   0
Cr               6.3039559766        8.3200573949       13.5345114413    0   0   0
Cr               4.2149984025        2.0754774019        9.7444374941    0   0   0
Cr               2.2032356219        2.0669442805       15.5748149446
Cr               6.2021367262        2.0337417251       15.5538177172
Cr               2.0054620409        2.1149661174       11.6192682974    0   0   0
Cr               6.3992485267        2.2488278238       11.6549867199    0   0   0
C                8.3671464633        0.0123762133        9.4921945368    0   0   0
C                8.3685510870        4.1683341954        9.4949958325    0   0   0
C                4.2233794382        0.0660683478        9.5137772640    0   0   0
C                4.2071394793        4.1170355077        9.4900603783    0   0   0
C                8.3753352139       -0.0047460034       13.6879749419    0   0   0
C                8.3555577743        4.1752016178       13.6998947017    0   0   0
C                4.2131653834        0.0054873094       13.6688163572    0   0   0
C                4.2220181648        4.1373219388       13.6924183861    0   0   0
C                2.1885259165        0.0695052709       15.8458121735
C                2.1184132881        4.0936138786       15.8896510266
C                6.2313332061        0.0689352966       15.8311334828
C                6.2821041939        4.1138332491       15.8613450224
C                2.1521326937        0.0175132539       11.5903255372    0   0   0
C                2.1078429860        4.1683083653       11.5671868517    0   0   0
C                6.2417937451        0.0188099573       11.6002801854    0   0   0
C                6.3283074126        4.1569384024       11.5682471185    0   0   0
C                8.3811230968        2.1466157230       15.8562535103
C                8.3781772719        6.2115414608       15.9001901139
C                4.2071510950        2.0572900494       15.7883623855
C                4.2183700429        6.2781255055       15.8750713766
C                0.0147673152        2.1438801594       11.5939557114    0   0   0
C                0.0200697416        6.2277703895       11.5821679336    0   0   0
C                4.2182428542        2.0594943016       11.6100232202    0   0   0
C                4.2117703951        6.2583221129       11.5919858628    0   0   0
C                2.1713130363        2.0860319016        9.4919958919    0   0   0
C                2.1164500536        6.2753611976        9.5156635851    0   0   0
C                6.2203151227        2.0809934926        9.4961719556    0   0   0
C                6.2861737462        6.2618311600        9.5257047400    0   0   0
C                2.1349207790        2.0551228178       13.6855329086    0   0   0
C                2.1043015435        6.2915359703       13.6724452320    0   0   0
C                6.2612712230        2.0678980813       13.6766563617    0   0   0
C                6.2981398968        6.2588382292       13.6653030130    0   0   0
C                2.1585729921        6.0975318263       18.0976013602
O                2.2253969315        5.8890271179       19.1958182460
O                8.3563624515        0.0513620177       18.0275641396
H                7.6367253697        0.4476468768       18.5423384899



     Writing config-only to output data dir ./tmp/hec3_CrTiV_f100_COOH_ads.save/ :
     XML data file
     NEW-OLD atomic charge density approx. for the potential

     Check: negative core charge=   -0.000005

     negative rho (up, down):  3.499E-02 0.000E+00

     total cpu time spent up to now is      603.7 secs

     Self-consistent Calculation

     iteration #  1     ecut=    60.00 Ry     beta= 0.30
     Davidson diagonalization with overlap
     c_bands:  1 eigenvalues not converged
     ethr =  1.00E-06,  avg # of iterations = 20.0

     negative rho (up, down):  3.494E-02 0.000E+00

     total cpu time spent up to now is      618.2 secs

     total energy              =   -5386.55672586 Ry
     estimated scf accuracy    <       0.03717111 Ry

     iteration #  2     ecut=    60.00 Ry     beta= 0.30
     Davidson diagonalization with overlap
     ethr =  6.63E-06,  avg # of iterations = 15.0

     negative rho (up, down):  3.492E-02 0.000E+00

     total cpu time spent up to now is      630.4 secs

     total energy              =   -5386.39413150 Ry
     estimated scf accuracy    <      13.30025612 Ry

     iteration #  3     ecut=    60.00 Ry     beta= 0.30
     Davidson diagonalization with overlap
     c_bands:  5 eigenvalues not converged
     ethr =  6.63E-06,  avg # of iterations = 20.0

     negative rho (up, down):  3.494E-02 0.000E+00

     total cpu time spent up to now is      645.0 secs

     total energy              =   -5386.56209592 Ry
     estimated scf accuracy    <       0.48336609 Ry

     iteration #  4     ecut=    60.00 Ry     beta= 0.30
     Davidson diagonalization with overlap
     ethr =  6.63E-06,  avg # of iterations =  7.0

     negative rho (up, down):  3.493E-02 0.000E+00

     total cpu time spent up to now is      654.6 secs

     total energy              =   -5386.57069242 Ry
     estimated scf accuracy    <       0.05220474 Ry

     iteration #  5     ecut=    60.00 Ry     beta= 0.30
     Davidson diagonalization with overlap
     ethr =  6.63E-06,  avg # of iterations =  1.0

     negative rho (up, down):  3.496E-02 0.000E+00

     total cpu time spent up to now is      661.4 secs

     total energy              =   -5386.57204404 Ry
     estimated scf accuracy    <       0.02054317 Ry

     iteration #  6     ecut=    60.00 Ry     beta= 0.30
     Davidson diagonalization with overlap
     ethr =  3.66E-06,  avg # of iterations =  2.0

     negative rho (up, down):  3.497E-02 0.000E+00

     total cpu time spent up to now is      668.9 secs

     total energy              =   -5386.57275432 Ry
     estimated scf accuracy    <       0.00543601 Ry

     iteration #  7     ecut=    60.00 Ry     beta= 0.30
     Davidson diagonalization with overlap
     ethr =  9.69E-07,  avg # of iterations =  5.0

     negative rho (up, down):  3.497E-02 0.000E+00

     total cpu time spent up to now is      676.7 secs

     total energy              =   -5386.57297227 Ry
     estimated scf accuracy    <       0.00314153 Ry

     iteration #  8     ecut=    60.00 Ry     beta= 0.30
     Davidson diagonalization with overlap
     ethr =  5.60E-07,  avg # of iterations =  5.0

     negative rho (up, down):  3.498E-02 0.000E+00

     total cpu time spent up to now is      685.3 secs

     total energy              =   -5386.57300100 Ry
     estimated scf accuracy    <       0.00390145 Ry

     iteration #  9     ecut=    60.00 Ry     beta= 0.30
     Davidson diagonalization with overlap
     ethr =  5.60E-07,  avg # of iterations =  1.0

     negative rho (up, down):  3.498E-02 0.000E+00

     total cpu time spent up to now is      691.6 secs

     total energy              =   -5386.57309838 Ry
     estimated scf accuracy    <       0.00155807 Ry

     iteration # 10     ecut=    60.00 Ry     beta= 0.30
     Davidson diagonalization with overlap
     ethr =  2.78E-07,  avg # of iterations =  2.0

     negative rho (up, down):  3.498E-02 0.000E+00

     total cpu time spent up to now is      698.7 secs

     total energy              =   -5386.57313364 Ry
     estimated scf accuracy    <       0.00081937 Ry

     iteration # 11     ecut=    60.00 Ry     beta= 0.30
     Davidson diagonalization with overlap
     ethr =  1.46E-07,  avg # of iterations =  2.0

     negative rho (up, down):  3.498E-02 0.000E+00

     total cpu time spent up to now is      706.0 secs

     total energy              =   -5386.57312785 Ry
     estimated scf accuracy    <       0.00094822 Ry

     iteration # 12     ecut=    60.00 Ry     beta= 0.30
     Davidson diagonalization with overlap
     ethr =  1.46E-07,  avg # of iterations =  2.0

     negative rho (up, down):  3.498E-02 0.000E+00

     total cpu time spent up to now is      713.1 secs

     total energy              =   -5386.57306058 Ry
     estimated scf accuracy    <       0.00414184 Ry

     iteration # 13     ecut=    60.00 Ry     beta= 0.30
     Davidson diagonalization with overlap
     ethr =  1.46E-07,  avg # of iterations =  3.0

     negative rho (up, down):  3.498E-02 0.000E+00

     total cpu time spent up to now is      720.6 secs

     total energy              =   -5386.57301849 Ry
     estimated scf accuracy    <       0.00991464 Ry

     iteration # 14     ecut=    60.00 Ry     beta= 0.30
     Davidson diagonalization with overlap
     ethr =  1.46E-07,  avg # of iterations =  1.0

     negative rho (up, down):  3.498E-02 0.000E+00

     total cpu time spent up to now is      727.7 secs

     total energy              =   -5386.57316130 Ry
     estimated scf accuracy    <       0.00073556 Ry

     iteration # 15     ecut=    60.00 Ry     beta= 0.30
     Davidson diagonalization with overlap
     ethr =  1.31E-07,  avg # of iterations =  1.0

     negative rho (up, down):  3.498E-02 0.000E+00

     total cpu time spent up to now is      734.4 secs

     total energy              =   -5386.57318080 Ry
     estimated scf accuracy    <       0.00003429 Ry

     iteration # 16     ecut=    60.00 Ry     beta= 0.30
     Davidson diagonalization with overlap
     ethr =  6.11E-09,  avg # of iterations =  6.0

     negative rho (up, down):  3.498E-02 0.000E+00

     total cpu time spent up to now is      742.9 secs

     total energy              =   -5386.57318076 Ry
     estimated scf accuracy    <       0.00012876 Ry

     iteration # 17     ecut=    60.00 Ry     beta= 0.30
     Davidson diagonalization with overlap
     ethr =  6.11E-09,  avg # of iterations =  4.0

     negative rho (up, down):  3.498E-02 0.000E+00

     total cpu time spent up to now is      751.1 secs

     total energy              =   -5386.57318344 Ry
     estimated scf accuracy    <       0.00006168 Ry

     iteration # 18     ecut=    60.00 Ry     beta= 0.30
     Davidson diagonalization with overlap
     ethr =  6.11E-09,  avg # of iterations =  2.0

     negative rho (up, down):  3.498E-02 0.000E+00

     total cpu time spent up to now is      758.4 secs

     total energy              =   -5386.57318442 Ry
     estimated scf accuracy    <       0.00002848 Ry

     iteration # 19     ecut=    60.00 Ry     beta= 0.30
     Davidson diagonalization with overlap
     ethr =  5.08E-09,  avg # of iterations =  2.0

     negative rho (up, down):  3.498E-02 0.000E+00

     total cpu time spent up to now is      765.3 secs

     total energy              =   -5386.57318430 Ry
     estimated scf accuracy    <       0.00004606 Ry

     iteration # 20     ecut=    60.00 Ry     beta= 0.30
     Davidson diagonalization with overlap
     ethr =  5.08E-09,  avg # of iterations =  1.0

     negative rho (up, down):  3.498E-02 0.000E+00

     total cpu time spent up to now is      772.4 secs

     total energy              =   -5386.57318511 Ry
     estimated scf accuracy    <       0.00002130 Ry

     iteration # 21     ecut=    60.00 Ry     beta= 0.30
     Davidson diagonalization with overlap
     ethr =  3.80E-09,  avg # of iterations =  2.0

     negative rho (up, down):  3.498E-02 0.000E+00

     total cpu time spent up to now is      779.6 secs

     total energy              =   -5386.57318518 Ry
     estimated scf accuracy    <       0.00002749 Ry

     iteration # 22     ecut=    60.00 Ry     beta= 0.30
     Davidson diagonalization with overlap
     ethr =  3.80E-09,  avg # of iterations =  1.0

     negative rho (up, down):  3.498E-02 0.000E+00

     total cpu time spent up to now is      786.4 secs

     total energy              =   -5386.57318568 Ry
     estimated scf accuracy    <       0.00000763 Ry

     iteration # 23     ecut=    60.00 Ry     beta= 0.30
     Davidson diagonalization with overlap
     ethr =  1.36E-09,  avg # of iterations =  5.0

     negative rho (up, down):  3.498E-02 0.000E+00

     total cpu time spent up to now is      794.5 secs

     total energy              =   -5386.57318392 Ry
     estimated scf accuracy    <       0.00019517 Ry

     iteration # 24     ecut=    60.00 Ry     beta= 0.30
     Davidson diagonalization with overlap
     ethr =  1.36E-09,  avg # of iterations =  5.0

     negative rho (up, down):  3.498E-02 0.000E+00

     total cpu time spent up to now is      802.3 secs

     total energy              =   -5386.57318597 Ry
     estimated scf accuracy    <       0.00001083 Ry

     iteration # 25     ecut=    60.00 Ry     beta= 0.30
     Davidson diagonalization with overlap
     ethr =  1.36E-09,  avg # of iterations =  1.0

     negative rho (up, down):  3.498E-02 0.000E+00

     total cpu time spent up to now is      809.5 secs

     total energy              =   -5386.57318625 Ry
     estimated scf accuracy    <       0.00000165 Ry

     iteration # 26     ecut=    60.00 Ry     beta= 0.30
     Davidson diagonalization with overlap
     ethr =  2.94E-10,  avg # of iterations =  5.0

     negative rho (up, down):  3.498E-02 0.000E+00

     total cpu time spent up to now is      818.4 secs

     total energy              =   -5386.57318617 Ry
     estimated scf accuracy    <       0.00000573 Ry

     iteration # 27     ecut=    60.00 Ry     beta= 0.30
     Davidson diagonalization with overlap
     ethr =  2.94E-10,  avg # of iterations =  5.0

     negative rho (up, down):  3.498E-02 0.000E+00

     total cpu time spent up to now is      826.6 secs

     total energy              =   -5386.57318629 Ry
     estimated scf accuracy    <       0.00000360 Ry

     iteration # 28     ecut=    60.00 Ry     beta= 0.30
     Davidson diagonalization with overlap
     ethr =  2.94E-10,  avg # of iterations =  2.0

     negative rho (up, down):  3.498E-02 0.000E+00

     total cpu time spent up to now is      834.0 secs

     total energy              =   -5386.57318636 Ry
     estimated scf accuracy    <       0.00000145 Ry

     iteration # 29     ecut=    60.00 Ry     beta= 0.30
     Davidson diagonalization with overlap
     ethr =  2.58E-10,  avg # of iterations =  2.0

     negative rho (up, down):  3.498E-02 0.000E+00

     total cpu time spent up to now is      841.1 secs

     total energy              =   -5386.57318634 Ry
     estimated scf accuracy    <       0.00000212 Ry

     iteration # 30     ecut=    60.00 Ry     beta= 0.30
     Davidson diagonalization with overlap
     ethr =  2.58E-10,  avg # of iterations =  2.0

     negative rho (up, down):  3.498E-02 0.000E+00

     total cpu time spent up to now is      848.6 secs

     total energy              =   -5386.57318635 Ry
     estimated scf accuracy    <       0.00000242 Ry

     iteration # 31     ecut=    60.00 Ry     beta= 0.30
     Davidson diagonalization with overlap
     ethr =  2.58E-10,  avg # of iterations =  1.0

     negative rho (up, down):  3.498E-02 0.000E+00

     total cpu time spent up to now is      855.2 secs

     total energy              =   -5386.57318641 Ry
     estimated scf accuracy    <       0.00000095 Ry

     iteration # 32     ecut=    60.00 Ry     beta= 0.30
     Davidson diagonalization with overlap
     ethr =  1.69E-10,  avg # of iterations =  1.0

     negative rho (up, down):  3.498E-02 0.000E+00

     total cpu time spent up to now is      861.9 secs

     total energy              =   -5386.57318643 Ry
     estimated scf accuracy    <       0.00000035 Ry

     iteration # 33     ecut=    60.00 Ry     beta= 0.30
     Davidson diagonalization with overlap
     ethr =  6.25E-11,  avg # of iterations =  2.0

     negative rho (up, down):  3.498E-02 0.000E+00

     total cpu time spent up to now is      869.0 secs

     total energy              =   -5386.57318638 Ry
     estimated scf accuracy    <       0.00000483 Ry

     iteration # 34     ecut=    60.00 Ry     beta= 0.30
     Davidson diagonalization with overlap
     ethr =  6.25E-11,  avg # of iterations =  1.0

     negative rho (up, down):  3.498E-02 0.000E+00

     total cpu time spent up to now is      875.7 secs

     total energy              =   -5386.57318643 Ry
     estimated scf accuracy    <       0.00000031 Ry

     iteration # 35     ecut=    60.00 Ry     beta= 0.30
     Davidson diagonalization with overlap
     ethr =  5.52E-11,  avg # of iterations =  4.0

     negative rho (up, down):  3.498E-02 0.000E+00

     total cpu time spent up to now is      884.0 secs

     total energy              =   -5386.57318641 Ry
     estimated scf accuracy    <       0.00000165 Ry

     iteration # 36     ecut=    60.00 Ry     beta= 0.30
     Davidson diagonalization with overlap
     ethr =  5.52E-11,  avg # of iterations =  2.0

     negative rho (up, down):  3.498E-02 0.000E+00

     total cpu time spent up to now is      891.2 secs

     total energy              =   -5386.57318645 Ry
     estimated scf accuracy    <       0.00000018 Ry

     iteration # 37     ecut=    60.00 Ry     beta= 0.30
     Davidson diagonalization with overlap
     ethr =  3.14E-11,  avg # of iterations =  1.0

     negative rho (up, down):  3.498E-02 0.000E+00

     total cpu time spent up to now is      897.8 secs

     End of self-consistent calculation

          k = 0.0000 0.0000 0.0000 ( 46961 PWs)   bands (ev):

   -69.5248 -69.5005 -69.4907 -69.4801 -69.4595 -69.4499 -69.4248 -69.4108
   -69.4097 -69.3984 -69.2162 -62.0229 -62.0110 -62.0092 -61.9773 -61.9005
   -61.8996 -61.8902 -61.8887 -61.7944 -61.7170 -54.3421 -54.2629 -54.2422
   -54.1132 -53.9466 -53.9260 -53.9095 -53.8978 -53.8890 -53.8389 -53.6976
   -40.9799 -40.9396 -40.9331 -40.9221 -40.9171 -40.9099 -40.8980 -40.8831
   -40.8675 -40.8643 -40.8547 -40.8518 -40.8383 -40.8291 -40.8157 -40.8087
   -40.7961 -40.7912 -40.7782 -40.7773 -40.7720 -40.7580 -40.7513 -40.7439
   -40.7195 -40.7146 -40.7056 -40.7051 -40.6754 -40.6553 -40.6459 -40.5757
   -40.4368 -35.9993 -35.9762 -35.9471 -35.9454 -35.9284 -35.9072 -35.8879
   -35.8689 -35.8408 -35.8343 -35.8169 -35.8114 -35.8079 -35.8072 -35.8010
   -35.7764 -35.7710 -35.7606 -35.7548 -35.7456 -35.7248 -35.7198 -35.7123
   -35.7036 -35.6837 -35.6643 -35.6616 -35.6245 -35.5596 -35.4580 -30.7771
   -30.6916 -30.6510 -30.5899 -30.5360 -30.5236 -30.5133 -30.5098 -30.5026
   -30.4937 -30.4251 -30.4084 -30.3808 -30.3634 -30.3307 -30.3225 -30.3079
   -30.3041 -30.2962 -30.2765 -30.2603 -30.2211 -30.2137 -30.1906 -30.1750
   -30.1534 -30.1357 -30.1087 -30.1024 -30.0813 -30.0476 -30.0054 -29.9522
   -22.1963 -16.2993 -10.6947  -9.6252  -9.2274  -9.1491  -9.0339  -8.8994
    -8.5571  -8.3440  -8.3040  -8.2512  -8.1969  -8.1138  -8.0378  -7.9259
    -7.8912  -7.7543  -7.6719  -7.6073  -7.5244  -7.4857  -7.4230  -7.4033
    -7.3627  -7.3375  -7.2474  -7.1903  -7.0920  -7.0163  -6.8337  -6.7810
    -6.7664  -6.6760  -6.4131  -4.6254  -4.6176  -4.0569  -3.8810  -3.8482
    -3.7790  -3.6581  -3.1886  -2.9170  -2.7918  -2.7034  -2.6844  -2.5895
    -2.5540  -2.4392  -2.4289  -2.3572  -2.2970  -2.2890  -2.1460  -2.0425
    -2.0002  -1.9257  -1.7760  -1.7645  -1.7332  -1.7000  -1.6041  -1.4991
    -1.4532  -1.4062  -1.4014  -1.3437  -1.3279  -1.3098  -1.2981  -1.2787
    -1.2637  -1.2590  -1.2342  -1.2261  -1.1853  -1.1535  -1.1324  -1.0421
    -1.0235  -0.9845  -0.9556  -0.9124  -0.9004  -0.8405  -0.8136  -0.7638
    -0.7455  -0.7318  -0.6999  -0.6652  -0.6378  -0.6247  -0.6084  -0.5832
    -0.5706  -0.5493  -0.5359  -0.5149  -0.4936  -0.4836  -0.3722  -0.3271
    -0.2737  -0.2544  -0.1835  -0.1354  -0.1055  -0.0378  -0.0011   0.0425
     0.0838   0.0990   0.1750   0.2130   0.2545   0.3285   0.3511   0.5141
     0.5423   0.6582   0.7390   0.7922   0.8070   0.9652   1.0130   1.0524
     1.1461   1.1840   1.2849   1.3252   1.3647   1.4598   1.4813   1.5232
     1.5663   1.7986   1.8217   1.8931   1.9190   1.9825   2.1897   2.2312
     2.3177   2.6337   2.7092   2.7795   2.8000   2.8510   2.9403   3.0058
     3.0240   3.0541   3.1205   3.1481   3.1788   3.1978   3.2513   3.2949
     3.3000   3.3233   3.3430   3.3880   3.4105   3.4320   3.4381   3.4749
     3.4915   3.5322   3.5631   3.6058   3.6649   3.6778   3.7070   3.7597
     3.7869   3.8238   3.8648   3.8976   3.9624   3.9882   4.0293   4.0500
     4.0903   4.0923   4.1323   4.1689   4.1879   4.2285   4.2620   4.2809
     4.3010   4.3406   4.3796   4.4291   4.4866   4.4912   4.5306   4.5608
     4.6131   4.6458   4.6714   4.7176   4.7594   4.8109   4.8252   4.8670
     4.9178

     the Fermi energy is     3.0242 ev

!    total energy              =   -5386.57318640 Ry
     estimated scf accuracy    <       0.00000007 Ry
     smearing contrib. (-TS)   =      -0.03484688 Ry
     internal energy E=F+TS    =   -5386.53833952 Ry

     The total energy is F=E-TS. E is the sum of the following terms:
     one-electron contribution =  -55903.80972094 Ry
     hartree contribution      =   27985.58902932 Ry
     xc contribution           =    -807.30005024 Ry
     ewald contribution        =   23561.80994678 Ry
     one-center paw contrib.   =    -222.82754445 Ry

     convergence has been achieved in  37 iterations

     negative rho (up, down):  3.498E-02 0.000E+00

     Forces acting on atoms (cartesian axes, Ry/au):

     atom    1 type  1   force =    -0.00040341   -0.00460759    0.00453045
     atom    2 type  1   force =    -0.00403718   -0.00521299    0.00581465
     atom    3 type  1   force =    -0.00625577    0.03150038   -0.00470182
     atom    4 type  1   force =     0.00007360   -0.01608617    0.02951214
     atom    5 type  1   force =    -0.00332518    0.01091240    0.00109022
     atom    6 type  1   force =     0.00827107   -0.00292314    0.02785736
     atom    7 type  1   force =     0.00037639   -0.02695499   -0.02153134
     atom    8 type  1   force =     0.01120818    0.02287896    0.00316802
     atom    9 type  1   force =    -0.01078904   -0.00711149   -0.02886330
     atom   10 type  1   force =    -0.00079544   -0.00134638   -0.00418084
     atom   11 type  1   force =     0.00328962    0.00070907   -0.01351319
     atom   12 type  2   force =     0.00414198   -0.00592844    0.01435972
     atom   13 type  2   force =    -0.00095873    0.00237493   -0.00031422
     atom   14 type  2   force =     0.02445903   -0.00698613    0.01983641
     atom   15 type  2   force =    -0.01254277   -0.00035668    0.11416157
     atom   16 type  2   force =     0.00510068    0.00022042    0.09494118
     atom   17 type  2   force =    -0.04447124   -0.02768656   -0.01315377
     atom   18 type  2   force =     0.00343240    0.02066198   -0.02896408
     atom   19 type  2   force =    -0.00995476    0.01556459   -0.03202648
     atom   20 type  2   force =    -0.00058800   -0.01076163    0.00456372
     atom   21 type  2   force =     0.00811916    0.01620637   -0.00434977
     atom   22 type  3   force =     0.00372440   -0.01861512   -0.00683195
     atom   23 type  3   force =    -0.02314788   -0.01066568   -0.00088436
     atom   24 type  3   force =     0.01690217    0.01362781   -0.01520898
     atom   25 type  3   force =     0.01661030   -0.01318809    0.06566778
     atom   26 type  3   force =    -0.00480151    0.01259354    0.12433163
     atom   27 type  3   force =     0.03369009   -0.00957692    0.01445150
     atom   28 type  3   force =    -0.00739206    0.00083855    0.03960819
     atom   29 type  3   force =     0.00845892    0.00582343   -0.01524399
     atom   30 type  3   force =    -0.00270575   -0.00475755   -0.01259072
     atom   31 type  3   force =     0.00410094   -0.00269550   -0.01035174
     atom   32 type  3   force =    -0.00715484    0.00143247   -0.00722595
     atom   33 type  4   force =     0.00023716   -0.00706061   -0.03588100
     atom   34 type  4   force =     0.00948503    0.01257717   -0.00482783
     atom   35 type  4   force =    -0.00202915   -0.01722466   -0.02223437
     atom   36 type  4   force =     0.00133399    0.01086123   -0.03612600
     atom   37 type  4   force =     0.00261384    0.00046057    0.03478890
     atom   38 type  4   force =     0.00291771   -0.00585112    0.02492479
     atom   39 type  4   force =     0.00463895    0.00769243    0.02955366
     atom   40 type  4   force =    -0.00034699   -0.00287726    0.00798550
     atom   41 type  4   force =    -0.00099758    0.00195142    0.00203122
     atom   42 type  4   force =    -0.00382176   -0.00302717    0.00671784
     atom   43 type  4   force =    -0.00149852    0.00072428    0.01087460
     atom   44 type  4   force =     0.00305990    0.00024077    0.00315335
     atom   45 type  4   force =     0.00872437    0.00929746   -0.04445864
     atom   46 type  4   force =     0.00338981   -0.00018305   -0.04604319
     atom   47 type  4   force =    -0.00796419    0.00190314   -0.03491179
     atom   48 type  4   force =    -0.01459622   -0.01271389   -0.02502708
     atom   49 type  4   force =    -0.00494035    0.00538674   -0.01938689
     atom   50 type  4   force =    -0.00171896    0.00826746   -0.03168921
     atom   51 type  4   force =     0.00045250   -0.00612912    0.00129593
     atom   52 type  4   force =     0.00142776    0.00893653   -0.00629246
     atom   53 type  4   force =    -0.00244284    0.00115755   -0.02615124
     atom   54 type  4   force =    -0.00651933    0.00521447   -0.03860238
     atom   55 type  4   force =     0.00005419    0.00681698   -0.03087359
     atom   56 type  4   force =    -0.00195584   -0.00698815   -0.03061548
     atom   57 type  4   force =    -0.01577293    0.00822098   -0.02809059
     atom   58 type  4   force =    -0.00904267   -0.00581571   -0.03896983
     atom   59 type  4   force =     0.01478219    0.01170052   -0.03104501
     atom   60 type  4   force =     0.00201833   -0.01065640   -0.02316797
     atom   61 type  4   force =     0.00362882    0.00228686    0.02099886
     atom   62 type  4   force =     0.00255368   -0.00280280    0.03361398
     atom   63 type  4   force =     0.00231761   -0.00012355    0.01232693
     atom   64 type  4   force =    -0.00258743   -0.00433351    0.03372629
     atom   65 type  4   force =    -0.00421466    0.01505926   -0.11035367
     atom   66 type  5   force =     0.00400525   -0.01492802    0.09894999
     atom   67 type  5   force =    -0.00120316    0.00145172   -0.00167366
     atom   68 type  6   force =     0.00137612    0.00062359    0.00152198

     Total force =     0.160629     Total SCF correction =     0.000450
     Energy error            =      2.9E-03 Ry
     Gradient error          =      1.1E-01 Ry/Bohr

     number of scf cycles    =   2
     number of bfgs steps    =   1

     energy             old  =   -5386.5702722657 Ry
     energy             new  =   -5386.5731864032 Ry

     CASE: energy            _new < energy            _old

     new trust radius        =       0.0761907561 bohr
     new conv_thr            =       0.0000000110 Ry


ATOMIC_POSITIONS (angstrom)
Ti               0.0202237816        0.0540304756       16.1894376807
Ti               0.0291331002        8.3621570543       11.5803477355    0   0   0
Ti               2.0975368417        4.1651924041       13.6995846818    0   0   0
Ti               8.3795041056        2.0957563981        9.4724378689    0   0   0
Ti               8.3750099733        6.2687152092        9.4933225157    0   0   0
Ti               4.2170671874        6.2898439467        9.4911460380    0   0   0
Ti               8.3706959315        2.0992468883       13.7196199333    0   0   0
Ti               8.3814371399        6.2587905921       13.6914936631    0   0   0
Ti               4.2074509867        6.2621252961       13.6953624844    0   0   0
Ti               2.1268231728        6.2608011183       15.8240152195
Ti               6.2900785203        6.2939391865       15.7357110414
V                8.3760999232        4.1261743236       15.7184588790
V                4.2132375883        4.1295249942       15.6577510372
V                4.1453105473        4.2119457891       11.5975026988    0   0   0
V                2.1879867013        0.0520231596        9.5054883674    0   0   0
V                2.1522427348        4.1319303501        9.4904675789    0   0   0
V                2.0919720210       -0.0034525136       13.6809547049    0   0   0
V                6.2957223951        4.1813414611       13.7896152224    0   0   0
V                4.2104512702        2.0785028673       13.6089365586    0   0   0
V                2.1048639148        6.2714192178       11.5723879270    0   0   0
V                6.3158808164        6.1438819511       11.5700667150    0   0   0
Cr               4.2245012179        0.0315136849       15.5276516040
Cr               0.1179128009        4.1786640750       11.5195623927    0   0   0
Cr               4.1681598842        8.2577799257       11.6615352591    0   0   0
Cr               6.1999882077        0.1106418811        9.6948923906    0   0   0
Cr               6.2007452456        4.0563627707        9.3394942948    0   0   0
Cr               6.3039559766        8.3200573949       13.5345114413    0   0   0
Cr               4.2149984025        2.0754774019        9.7444374941    0   0   0
Cr               2.2107711947        2.0773140701       15.5474708155
Cr               6.2016316642        2.0289818424       15.5306896773
Cr               2.0054620409        2.1149661174       11.6192682974    0   0   0
Cr               6.3992485267        2.2488278238       11.6549867199    0   0   0
C                8.3671464633        0.0123762133        9.4921945368    0   0   0
C                8.3685510870        4.1683341954        9.4949958325    0   0   0
C                4.2233794382        0.0660683478        9.5137772640    0   0   0
C                4.2071394793        4.1170355077        9.4900603783    0   0   0
C                8.3753352139       -0.0047460034       13.6879749419    0   0   0
C                8.3555577743        4.1752016178       13.6998947017    0   0   0
C                4.2131653834        0.0054873094       13.6688163572    0   0   0
C                4.2220181648        4.1373219388       13.6924183861    0   0   0
C                2.1873609719        0.0702688326       15.8490551355
C                2.1132392200        4.0887585843       15.8976262065
C                6.2290243795        0.0684724887       15.8456134096
C                6.2876303899        4.1136772479       15.8650199883
C                2.1521326937        0.0175132539       11.5903255372    0   0   0
C                2.1078429860        4.1683083653       11.5671868517    0   0   0
C                6.2417937451        0.0188099573       11.6002801854    0   0   0
C                6.3283074126        4.1569384024       11.5682471185    0   0   0
C                8.3754982709        2.1580605061       15.8326297977
C                8.3748311432        6.2187869321       15.8606694749
C                4.2083204890        2.0475312410       15.7919836195
C                4.2211001029        6.2892057503       15.8680130497
C                0.0147673152        2.1438801594       11.5939557114    0   0   0
C                0.0200697416        6.2277703895       11.5821679336    0   0   0
C                4.2182428542        2.0594943016       11.6100232202    0   0   0
C                4.2117703951        6.2583221129       11.5919858628    0   0   0
C                2.1713130363        2.0860319016        9.4919958919    0   0   0
C                2.1164500536        6.2753611976        9.5156635851    0   0   0
C                6.2203151227        2.0809934926        9.4961719556    0   0   0
C                6.2861737462        6.2618311600        9.5257047400    0   0   0
C                2.1349207790        2.0551228178       13.6855329086    0   0   0
C                2.1043015435        6.2915359703       13.6724452320    0   0   0
C                6.2612712230        2.0678980813       13.6766563617    0   0   0
C                6.2981398968        6.2588382292       13.6653030130    0   0   0
C                2.1610539169        6.0922506777       18.0818659746
O                2.2229255567        5.8935761900       19.1981051843
O                8.3530903445        0.0541499828       18.0215778821
H                7.6403237584        0.4474291835       18.5426936658



     Writing config-only to output data dir ./tmp/hec3_CrTiV_f100_COOH_ads.save/ :
     XML data file
     NEW-OLD atomic charge density approx. for the potential

     Check: negative core charge=   -0.000005

     negative rho (up, down):  3.507E-02 0.000E+00

     total cpu time spent up to now is      910.1 secs

     Self-consistent Calculation

     iteration #  1     ecut=    60.00 Ry     beta= 0.30
     Davidson diagonalization with overlap
     ethr =  1.00E-06,  avg # of iterations = 10.0

     negative rho (up, down):  3.497E-02 0.000E+00

     total cpu time spent up to now is      922.6 secs

     total energy              =   -5386.53374288 Ry
     estimated scf accuracy    <       0.10628617 Ry

     iteration #  2     ecut=    60.00 Ry     beta= 0.30
     Davidson diagonalization with overlap
     ethr =  1.89E-05,  avg # of iterations = 17.0

     negative rho (up, down):  3.487E-02 0.000E+00

     total cpu time spent up to now is      936.7 secs

     total energy              =   -5386.14891159 Ry
     estimated scf accuracy    <      28.94637208 Ry

     iteration #  3     ecut=    60.00 Ry     beta= 0.30
     Davidson diagonalization with overlap
     c_bands:  3 eigenvalues not converged
     ethr =  1.89E-05,  avg # of iterations = 20.0

     negative rho (up, down):  3.490E-02 0.000E+00

     total cpu time spent up to now is      950.8 secs

     total energy              =   -5386.54115877 Ry
     estimated scf accuracy    <       1.87882182 Ry

     iteration #  4     ecut=    60.00 Ry     beta= 0.30
     Davidson diagonalization with overlap
     ethr =  1.89E-05,  avg # of iterations = 18.0

     negative rho (up, down):  3.490E-02 0.000E+00

     total cpu time spent up to now is      962.1 secs

     total energy              =   -5386.57277718 Ry
     estimated scf accuracy    <       0.18257108 Ry

     iteration #  5     ecut=    60.00 Ry     beta= 0.30
     Davidson diagonalization with overlap
     ethr =  1.89E-05,  avg # of iterations =  2.0

     negative rho (up, down):  3.496E-02 0.000E+00

     total cpu time spent up to now is      969.1 secs

     total energy              =   -5386.57764867 Ry
     estimated scf accuracy    <       0.06609377 Ry

     iteration #  6     ecut=    60.00 Ry     beta= 0.30
     Davidson diagonalization with overlap
     ethr =  1.18E-05,  avg # of iterations =  2.0

     negative rho (up, down):  3.498E-02 0.000E+00

     total cpu time spent up to now is      976.1 secs

     total energy              =   -5386.58012662 Ry
     estimated scf accuracy    <       0.01340304 Ry

     iteration #  7     ecut=    60.00 Ry     beta= 0.30
     Davidson diagonalization with overlap
     ethr =  2.39E-06,  avg # of iterations = 19.0

     negative rho (up, down):  3.501E-02 0.000E+00

     total cpu time spent up to now is      988.7 secs

     total energy              =   -5386.58094476 Ry
     estimated scf accuracy    <       0.00605203 Ry

     iteration #  8     ecut=    60.00 Ry     beta= 0.30
     Davidson diagonalization with overlap
     ethr =  1.08E-06,  avg # of iterations =  2.0

     negative rho (up, down):  3.502E-02 0.000E+00

     total cpu time spent up to now is      996.0 secs

     total energy              =   -5386.58097810 Ry
     estimated scf accuracy    <       0.00694701 Ry

     iteration #  9     ecut=    60.00 Ry     beta= 0.30
     Davidson diagonalization with overlap
     ethr =  1.08E-06,  avg # of iterations =  1.0

     negative rho (up, down):  3.502E-02 0.000E+00

     total cpu time spent up to now is     1002.9 secs

     total energy              =   -5386.58112831 Ry
     estimated scf accuracy    <       0.00361482 Ry

     iteration # 10     ecut=    60.00 Ry     beta= 0.30
     Davidson diagonalization with overlap
     ethr =  6.44E-07,  avg # of iterations =  2.0

     negative rho (up, down):  3.503E-02 0.000E+00

     total cpu time spent up to now is     1010.6 secs

     total energy              =   -5386.58121164 Ry
     estimated scf accuracy    <       0.00235537 Ry

     iteration # 11     ecut=    60.00 Ry     beta= 0.30
     Davidson diagonalization with overlap
     ethr =  4.20E-07,  avg # of iterations =  2.0

     negative rho (up, down):  3.503E-02 0.000E+00

     total cpu time spent up to now is     1018.2 secs

     total energy              =   -5386.58121032 Ry
     estimated scf accuracy    <       0.00149069 Ry

     iteration # 12     ecut=    60.00 Ry     beta= 0.30
     Davidson diagonalization with overlap
     ethr =  2.66E-07,  avg # of iterations =  3.0

     negative rho (up, down):  3.503E-02 0.000E+00

     total cpu time spent up to now is     1025.6 secs

     total energy              =   -5386.58103648 Ry
     estimated scf accuracy    <       0.01131327 Ry

     iteration # 13     ecut=    60.00 Ry     beta= 0.30
     Davidson diagonalization with overlap
     ethr =  2.66E-07,  avg # of iterations =  3.0

     negative rho (up, down):  3.504E-02 0.000E+00

     total cpu time spent up to now is     1033.0 secs

     total energy              =   -5386.58110082 Ry
     estimated scf accuracy    <       0.01273608 Ry

     iteration # 14     ecut=    60.00 Ry     beta= 0.30
     Davidson diagonalization with overlap
     ethr =  2.66E-07,  avg # of iterations =  2.0

     negative rho (up, down):  3.504E-02 0.000E+00

     total cpu time spent up to now is     1040.2 secs

     total energy              =   -5386.58128658 Ry
     estimated scf accuracy    <       0.00167719 Ry

     iteration # 15     ecut=    60.00 Ry     beta= 0.30
     Davidson diagonalization with overlap
     ethr =  2.66E-07,  avg # of iterations =  1.0

     negative rho (up, down):  3.504E-02 0.000E+00

     total cpu time spent up to now is     1047.1 secs

     total energy              =   -5386.58133159 Ry
     estimated scf accuracy    <       0.00008054 Ry

     iteration # 16     ecut=    60.00 Ry     beta= 0.30
     Davidson diagonalization with overlap
     ethr =  1.44E-08,  avg # of iterations =  5.0

     negative rho (up, down):  3.504E-02 0.000E+00

     total cpu time spent up to now is     1055.3 secs

     total energy              =   -5386.58133199 Ry
     estimated scf accuracy    <       0.00013351 Ry

     iteration # 17     ecut=    60.00 Ry     beta= 0.30
     Davidson diagonalization with overlap
     ethr =  1.44E-08,  avg # of iterations =  5.0

     negative rho (up, down):  3.504E-02 0.000E+00

     total cpu time spent up to now is     1063.4 secs

     total energy              =   -5386.58133224 Ry
     estimated scf accuracy    <       0.00027659 Ry

     iteration # 18     ecut=    60.00 Ry     beta= 0.30
     Davidson diagonalization with overlap
     ethr =  1.44E-08,  avg # of iterations =  4.0

     negative rho (up, down):  3.504E-02 0.000E+00

     total cpu time spent up to now is     1071.7 secs

     total energy              =   -5386.58133606 Ry
     estimated scf accuracy    <       0.00012671 Ry

     iteration # 19     ecut=    60.00 Ry     beta= 0.30
     Davidson diagonalization with overlap
     ethr =  1.44E-08,  avg # of iterations =  2.0

     negative rho (up, down):  3.504E-02 0.000E+00

     total cpu time spent up to now is     1078.9 secs

     total energy              =   -5386.58133811 Ry
     estimated scf accuracy    <       0.00010432 Ry

     iteration # 20     ecut=    60.00 Ry     beta= 0.30
     Davidson diagonalization with overlap
     ethr =  1.44E-08,  avg # of iterations =  2.0

     negative rho (up, down):  3.504E-02 0.000E+00

     total cpu time spent up to now is     1086.3 secs

     total energy              =   -5386.58133943 Ry
     estimated scf accuracy    <       0.00007380 Ry

     iteration # 21     ecut=    60.00 Ry     beta= 0.30
     Davidson diagonalization with overlap
     ethr =  1.32E-08,  avg # of iterations =  1.0

     negative rho (up, down):  3.504E-02 0.000E+00

     total cpu time spent up to now is     1092.8 secs

     total energy              =   -5386.58134050 Ry
     estimated scf accuracy    <       0.00006671 Ry

     iteration # 22     ecut=    60.00 Ry     beta= 0.30
     Davidson diagonalization with overlap
     ethr =  1.19E-08,  avg # of iterations =  1.0

     negative rho (up, down):  3.505E-02 0.000E+00

     total cpu time spent up to now is     1099.5 secs

     total energy              =   -5386.58134212 Ry
     estimated scf accuracy    <       0.00001349 Ry

     iteration # 23     ecut=    60.00 Ry     beta= 0.30
     Davidson diagonalization with overlap
     ethr =  2.40E-09,  avg # of iterations =  5.0

     negative rho (up, down):  3.505E-02 0.000E+00

     total cpu time spent up to now is     1107.5 secs

     total energy              =   -5386.58133784 Ry
     estimated scf accuracy    <       0.00043177 Ry

     iteration # 24     ecut=    60.00 Ry     beta= 0.30
     Davidson diagonalization with overlap
     ethr =  2.40E-09,  avg # of iterations =  5.0

     negative rho (up, down):  3.505E-02 0.000E+00

     total cpu time spent up to now is     1115.2 secs

     total energy              =   -5386.58134297 Ry
     estimated scf accuracy    <       0.00000998 Ry

     iteration # 25     ecut=    60.00 Ry     beta= 0.30
     Davidson diagonalization with overlap
     ethr =  1.78E-09,  avg # of iterations =  1.0

     negative rho (up, down):  3.505E-02 0.000E+00

     total cpu time spent up to now is     1121.8 secs

     total energy              =   -5386.58134329 Ry
     estimated scf accuracy    <       0.00000511 Ry

     iteration # 26     ecut=    60.00 Ry     beta= 0.30
     Davidson diagonalization with overlap
     ethr =  9.11E-10,  avg # of iterations =  4.0

     negative rho (up, down):  3.505E-02 0.000E+00

     total cpu time spent up to now is     1129.9 secs

     total energy              =   -5386.58134323 Ry
     estimated scf accuracy    <       0.00001144 Ry

     iteration # 27     ecut=    60.00 Ry     beta= 0.30
     Davidson diagonalization with overlap
     ethr =  9.11E-10,  avg # of iterations =  2.0

     negative rho (up, down):  3.505E-02 0.000E+00

     total cpu time spent up to now is     1137.0 secs

     total energy              =   -5386.58134350 Ry
     estimated scf accuracy    <       0.00000634 Ry

     iteration # 28     ecut=    60.00 Ry     beta= 0.30
     Davidson diagonalization with overlap
     ethr =  9.11E-10,  avg # of iterations =  1.0

     negative rho (up, down):  3.505E-02 0.000E+00

     total cpu time spent up to now is     1143.8 secs

     total energy              =   -5386.58134364 Ry
     estimated scf accuracy    <       0.00000157 Ry

     iteration # 29     ecut=    60.00 Ry     beta= 0.30
     Davidson diagonalization with overlap
     ethr =  2.80E-10,  avg # of iterations =  5.0

     negative rho (up, down):  3.505E-02 0.000E+00

     total cpu time spent up to now is     1151.7 secs

     total energy              =   -5386.58134353 Ry
     estimated scf accuracy    <       0.00000608 Ry

     iteration # 30     ecut=    60.00 Ry     beta= 0.30
     Davidson diagonalization with overlap
     ethr =  2.80E-10,  avg # of iterations =  4.0

     negative rho (up, down):  3.505E-02 0.000E+00

     total cpu time spent up to now is     1159.4 secs

     total energy              =   -5386.58134363 Ry
     estimated scf accuracy    <       0.00000292 Ry

     iteration # 31     ecut=    60.00 Ry     beta= 0.30
     Davidson diagonalization with overlap
     ethr =  2.80E-10,  avg # of iterations =  2.0

     negative rho (up, down):  3.505E-02 0.000E+00

     total cpu time spent up to now is     1166.6 secs

     total energy              =   -5386.58134370 Ry
     estimated scf accuracy    <       0.00000158 Ry

     iteration # 32     ecut=    60.00 Ry     beta= 0.30
     Davidson diagonalization with overlap
     ethr =  2.80E-10,  avg # of iterations =  1.0

     negative rho (up, down):  3.505E-02 0.000E+00

     total cpu time spent up to now is     1173.6 secs

     total energy              =   -5386.58134376 Ry
     estimated scf accuracy    <       0.00000046 Ry

     iteration # 33     ecut=    60.00 Ry     beta= 0.30
     Davidson diagonalization with overlap
     ethr =  8.20E-11,  avg # of iterations =  2.0

     negative rho (up, down):  3.505E-02 0.000E+00

     total cpu time spent up to now is     1180.9 secs

     total energy              =   -5386.58134376 Ry
     estimated scf accuracy    <       0.00000057 Ry

     iteration # 34     ecut=    60.00 Ry     beta= 0.30
     Davidson diagonalization with overlap
     ethr =  8.20E-11,  avg # of iterations =  1.0

     negative rho (up, down):  3.505E-02 0.000E+00

     total cpu time spent up to now is     1188.0 secs

     total energy              =   -5386.58134374 Ry
     estimated scf accuracy    <       0.00000236 Ry

     iteration # 35     ecut=    60.00 Ry     beta= 0.30
     Davidson diagonalization with overlap
     ethr =  8.20E-11,  avg # of iterations =  2.0

     negative rho (up, down):  3.505E-02 0.000E+00

     total cpu time spent up to now is     1194.9 secs

     total energy              =   -5386.58134374 Ry
     estimated scf accuracy    <       0.00000144 Ry

     iteration # 36     ecut=    60.00 Ry     beta= 0.30
     Davidson diagonalization with overlap
     ethr =  8.20E-11,  avg # of iterations =  1.0

     negative rho (up, down):  3.505E-02 0.000E+00

     total cpu time spent up to now is     1201.6 secs

     total energy              =   -5386.58134378 Ry
     estimated scf accuracy    <       0.00000009 Ry

     iteration # 37     ecut=    60.00 Ry     beta= 0.30
     Davidson diagonalization with overlap
     ethr =  1.60E-11,  avg # of iterations =  2.0

     negative rho (up, down):  3.505E-02 0.000E+00

     total cpu time spent up to now is     1209.0 secs

     total energy              =   -5386.58134379 Ry
     estimated scf accuracy    <       0.00000011 Ry

     iteration # 38     ecut=    60.00 Ry     beta= 0.30
     Davidson diagonalization with overlap
     ethr =  1.60E-11,  avg # of iterations =  1.0

     negative rho (up, down):  3.505E-02 0.000E+00

     total cpu time spent up to now is     1216.1 secs

     total energy              =   -5386.58134379 Ry
     estimated scf accuracy    <       0.00000015 Ry

     iteration # 39     ecut=    60.00 Ry     beta= 0.30
     Davidson diagonalization with overlap
     ethr =  1.60E-11,  avg # of iterations =  2.0

     negative rho (up, down):  3.505E-02 0.000E+00

     total cpu time spent up to now is     1223.2 secs

     total energy              =   -5386.58134379 Ry
     estimated scf accuracy    <       0.00000007 Ry

     iteration # 40     ecut=    60.00 Ry     beta= 0.30
     Davidson diagonalization with overlap
     ethr =  1.31E-11,  avg # of iterations =  2.0

     negative rho (up, down):  3.505E-02 0.000E+00

     total cpu time spent up to now is     1230.3 secs

     total energy              =   -5386.58134379 Ry
     estimated scf accuracy    <       0.00000014 Ry

     iteration # 41     ecut=    60.00 Ry     beta= 0.30
     Davidson diagonalization with overlap
     ethr =  1.31E-11,  avg # of iterations =  2.0

     negative rho (up, down):  3.505E-02 0.000E+00

     total cpu time spent up to now is     1237.5 secs

     total energy              =   -5386.58134379 Ry
     estimated scf accuracy    <       0.00000012 Ry

     iteration # 42     ecut=    60.00 Ry     beta= 0.30
     Davidson diagonalization with overlap
     ethr =  1.31E-11,  avg # of iterations =  1.0

     negative rho (up, down):  3.505E-02 0.000E+00

     total cpu time spent up to now is     1244.1 secs

     total energy              =   -5386.58134379 Ry
     estimated scf accuracy    <       0.00000002 Ry

     iteration # 43     ecut=    60.00 Ry     beta= 0.30
     Davidson diagonalization with overlap
     ethr =  4.28E-12,  avg # of iterations =  1.0

     negative rho (up, down):  3.505E-02 0.000E+00

     total cpu time spent up to now is     1251.0 secs

     total energy              =   -5386.58134379 Ry
     estimated scf accuracy    <       0.00000001 Ry

     iteration # 44     ecut=    60.00 Ry     beta= 0.30
     Davidson diagonalization with overlap
     ethr =  2.19E-12,  avg # of iterations =  5.0

     negative rho (up, down):  3.505E-02 0.000E+00

     total cpu time spent up to now is     1259.0 secs

     total energy              =   -5386.58134379 Ry
     estimated scf accuracy    <       0.00000021 Ry

     iteration # 45     ecut=    60.00 Ry     beta= 0.30
     Davidson diagonalization with overlap
     ethr =  2.19E-12,  avg # of iterations =  5.0

     negative rho (up, down):  3.505E-02 0.000E+00

     total cpu time spent up to now is     1266.9 secs

     total energy              =   -5386.58134379 Ry
     estimated scf accuracy    <       0.00000001 Ry

     iteration # 46     ecut=    60.00 Ry     beta= 0.30
     Davidson diagonalization with overlap
     ethr =  2.19E-12,  avg # of iterations =  2.0

     negative rho (up, down):  3.505E-02 0.000E+00

     total cpu time spent up to now is     1274.0 secs

     End of self-consistent calculation

          k = 0.0000 0.0000 0.0000 ( 46961 PWs)   bands (ev):

   -69.5224 -69.5107 -69.4945 -69.4857 -69.4592 -69.4566 -69.4275 -69.4137
   -69.4127 -69.3938 -69.2225 -62.0316 -62.0179 -62.0172 -61.9828 -61.9018
   -61.8959 -61.8927 -61.8926 -61.8083 -61.7255 -54.3473 -54.2630 -54.2491
   -54.1129 -53.9503 -53.9141 -53.8966 -53.8947 -53.8793 -53.8449 -53.6827
   -40.9898 -40.9445 -40.9385 -40.9220 -40.9191 -40.9086 -40.8960 -40.8869
   -40.8715 -40.8699 -40.8585 -40.8537 -40.8444 -40.8284 -40.8204 -40.8131
   -40.7961 -40.7931 -40.7842 -40.7759 -40.7754 -40.7668 -40.7527 -40.7473
   -40.7209 -40.7197 -40.7128 -40.7103 -40.6773 -40.6616 -40.6557 -40.5827
   -40.4423 -36.0111 -35.9843 -35.9540 -35.9516 -35.9355 -35.9132 -35.8935
   -35.8747 -35.8467 -35.8393 -35.8202 -35.8153 -35.8115 -35.8079 -35.7991
   -35.7791 -35.7732 -35.7638 -35.7593 -35.7493 -35.7311 -35.7277 -35.7111
   -35.6990 -35.6969 -35.6705 -35.6680 -35.6335 -35.5709 -35.4686 -30.8018
   -30.6905 -30.6581 -30.5932 -30.5362 -30.5228 -30.5119 -30.5100 -30.5089
   -30.5004 -30.4263 -30.4099 -30.3815 -30.3556 -30.3344 -30.3221 -30.3096
   -30.3049 -30.2959 -30.2696 -30.2575 -30.2216 -30.2159 -30.1884 -30.1607
   -30.1424 -30.1295 -30.1077 -30.0944 -30.0757 -30.0357 -29.9938 -29.9375
   -21.9228 -16.4009 -10.7027  -9.6297  -9.2348  -9.1578  -9.0439  -8.9066
    -8.5567  -8.3587  -8.3097  -8.2622  -8.2019  -8.1202  -8.0425  -7.9313
    -7.8956  -7.7585  -7.6798  -7.6117  -7.5281  -7.4822  -7.4244  -7.4026
    -7.3674  -7.3413  -7.2382  -7.1893  -7.0886  -7.0102  -6.8383  -6.7722
    -6.7613  -6.6639  -6.4254  -4.4604  -4.4455  -4.1462  -3.8941  -3.8575
    -3.7903  -3.6706  -3.1979  -2.9305  -2.8036  -2.6992  -2.6736  -2.6024
    -2.5624  -2.4488  -2.4370  -2.3630  -2.3122  -2.3003  -2.1499  -2.0543
    -2.0114  -1.9309  -1.7852  -1.7735  -1.7442  -1.7099  -1.6011  -1.5084
    -1.4677  -1.4148  -1.4080  -1.3538  -1.3350  -1.3168  -1.3036  -1.2874
    -1.2701  -1.2641  -1.2373  -1.2272  -1.1858  -1.1558  -1.1344  -1.0471
    -1.0292  -0.9871  -0.9504  -0.9187  -0.9088  -0.8454  -0.8212  -0.7736
    -0.7516  -0.7473  -0.7024  -0.6709  -0.6600  -0.6377  -0.6184  -0.5898
    -0.5758  -0.5547  -0.5387  -0.5241  -0.5064  -0.5014  -0.3517  -0.3225
    -0.2831  -0.2527  -0.1883  -0.1393  -0.1204  -0.0538  -0.0011   0.0368
     0.0836   0.0983   0.1658   0.1938   0.2378   0.3127   0.3346   0.5087
     0.5376   0.6527   0.7064   0.7864   0.8117   0.9635   1.0089   1.0408
     1.1330   1.1734   1.2766   1.3286   1.3581   1.4568   1.4814   1.5228
     1.5566   1.7913   1.8196   1.8736   1.9144   1.9828   2.1766   2.2155
     2.3168   2.6244   2.7023   2.7607   2.7797   2.8447   2.9333   2.9978
     3.0197   3.0501   3.1182   3.1407   3.1807   3.2014   3.2434   3.2926
     3.3043   3.3220   3.3419   3.3854   3.4201   3.4262   3.4361   3.4770
     3.4955   3.5299   3.5675   3.6114   3.6705   3.6805   3.7059   3.7603
     3.7865   3.8260   3.8723   3.8953   3.9565   3.9812   4.0319   4.0444
     4.0842   4.0899   4.1366   4.1652   4.1805   4.2244   4.2558   4.2719
     4.2982   4.3332   4.3810   4.4278   4.4767   4.4926   4.5300   4.5640
     4.6087   4.6377   4.6677   4.7195   4.7594   4.8026   4.8222   4.8720
     4.9080

     the Fermi energy is     3.0178 ev

!    total energy              =   -5386.58134379 Ry
     estimated scf accuracy    <          9.4E-09 Ry
     smearing contrib. (-TS)   =      -0.03237920 Ry
     internal energy E=F+TS    =   -5386.54896459 Ry

     The total energy is F=E-TS. E is the sum of the following terms:
     one-electron contribution =  -55950.52554018 Ry
     hartree contribution      =   28008.91269028 Ry
     xc contribution           =    -807.32949005 Ry
     ewald contribution        =   23585.22116619 Ry
     one-center paw contrib.   =    -222.82779083 Ry

     convergence has been achieved in  46 iterations

     negative rho (up, down):  3.505E-02 0.000E+00

     Forces acting on atoms (cartesian axes, Ry/au):

     atom    1 type  1   force =     0.00172288   -0.00059475   -0.00747962
     atom    2 type  1   force =    -0.00346661   -0.00594266    0.00567899
     atom    3 type  1   force =    -0.00829228    0.03474433   -0.00858037
     atom    4 type  1   force =     0.00021080   -0.01588263    0.02929066
     atom    5 type  1   force =    -0.00322022    0.01090127    0.00037467
     atom    6 type  1   force =     0.00827607   -0.00273512    0.02802011
     atom    7 type  1   force =     0.00021399   -0.02415004   -0.01937948
     atom    8 type  1   force =     0.01268353    0.02149326    0.00702868
     atom    9 type  1   force =    -0.01239528   -0.00805733   -0.03194157
     atom   10 type  1   force =     0.00042514   -0.00122547   -0.00482175
     atom   11 type  1   force =     0.00142678   -0.00243612   -0.00015420
     atom   12 type  2   force =     0.00061784   -0.00600826   -0.00061741
     atom   13 type  2   force =     0.00440546   -0.00334752   -0.00087175
     atom   14 type  2   force =     0.02443804   -0.00722017    0.01966932
     atom   15 type  2   force =    -0.01223445   -0.00034515    0.11447523
     atom   16 type  2   force =     0.00509353    0.00049882    0.09514619
     atom   17 type  2   force =    -0.04621361   -0.02974821   -0.01895029
     atom   18 type  2   force =     0.00634551    0.02110143   -0.03072484
     atom   19 type  2   force =    -0.00876033    0.01594279   -0.03547766
     atom   20 type  2   force =    -0.00081950   -0.01082343    0.00467005
     atom   21 type  2   force =     0.00837242    0.01581565   -0.00428387
     atom   22 type  3   force =     0.00023247   -0.01244098    0.00406232
     atom   23 type  3   force =    -0.02308643   -0.01094166   -0.00352106
     atom   24 type  3   force =     0.01733276    0.01354245   -0.01582139
     atom   25 type  3   force =     0.01677891   -0.01308375    0.06591325
     atom   26 type  3   force =    -0.00463391    0.01237664    0.12473883
     atom   27 type  3   force =     0.03655142   -0.00952780    0.01074303
     atom   28 type  3   force =    -0.00721420    0.00083884    0.04087187
     atom   29 type  3   force =     0.01366250   -0.00157881    0.00983279
     atom   30 type  3   force =    -0.00894222   -0.00661812    0.00846219
     atom   31 type  3   force =     0.00364926   -0.00198705   -0.00949506
     atom   32 type  3   force =    -0.00694105    0.00145832   -0.00689472
     atom   33 type  4   force =     0.00005666   -0.00715189   -0.03524659
     atom   34 type  4   force =     0.00956900    0.01247132   -0.00411068
     atom   35 type  4   force =    -0.00208884   -0.01745840   -0.02266037
     atom   36 type  4   force =     0.00123610    0.01075533   -0.03632806
     atom   37 type  4   force =     0.00228048    0.00050239    0.03131936
     atom   38 type  4   force =     0.00347157   -0.00650259    0.02656060
     atom   39 type  4   force =     0.00449301    0.00450852    0.02497127
     atom   40 type  4   force =    -0.00056125   -0.00235047    0.00855769
     atom   41 type  4   force =    -0.00011359    0.00593363   -0.00062062
     atom   42 type  4   force =    -0.00163094   -0.00025752    0.00656454
     atom   43 type  4   force =    -0.00031514    0.00368626    0.00609712
     atom   44 type  4   force =    -0.00107609    0.00122181    0.00229557
     atom   45 type  4   force =     0.00798386    0.00896990   -0.04364209
     atom   46 type  4   force =     0.00295996   -0.00023058   -0.04541513
     atom   47 type  4   force =    -0.00815688    0.00160436   -0.03395636
     atom   48 type  4   force =    -0.01396361   -0.01228502   -0.02457895
     atom   49 type  4   force =    -0.00541459   -0.00550472   -0.01623811
     atom   50 type  4   force =     0.00121287    0.01346971   -0.02414693
     atom   51 type  4   force =    -0.00100425   -0.00031197   -0.00369171
     atom   52 type  4   force =    -0.00046682    0.00770614   -0.00652380
     atom   53 type  4   force =    -0.00245016    0.00193267   -0.02842324
     atom   54 type  4   force =    -0.00664519    0.00520605   -0.04103571
     atom   55 type  4   force =    -0.00003217    0.00707719   -0.03052843
     atom   56 type  4   force =    -0.00196127   -0.00679452   -0.03086015
     atom   57 type  4   force =    -0.01595699    0.00816977   -0.02858138
     atom   58 type  4   force =    -0.00917522   -0.00593048   -0.03899537
     atom   59 type  4   force =     0.01468256    0.01152036   -0.03153015
     atom   60 type  4   force =     0.00206066   -0.01065981   -0.02307454
     atom   61 type  4   force =     0.00371605    0.00223707    0.01195338
     atom   62 type  4   force =     0.00232287   -0.00325406    0.03207228
     atom   63 type  4   force =     0.00198875   -0.00027727    0.00364411
     atom   64 type  4   force =    -0.00209239   -0.00479233    0.02708435
     atom   65 type  4   force =    -0.00080300    0.00238731   -0.03833962
     atom   66 type  5   force =     0.00018183   -0.00179964    0.02727723
     atom   67 type  5   force =     0.00192683   -0.00028242    0.00512101
     atom   68 type  6   force =    -0.00245390    0.00246513    0.00504636

     Total force =     0.066712     Total SCF correction =     0.000163
     Energy error            =      8.2E-03 Ry
     Gradient error          =      3.8E-02 Ry/Bohr

     number of scf cycles    =   3
     number of bfgs steps    =   2

     energy             old  =   -5386.5731864032 Ry
     energy             new  =   -5386.5813437867 Ry

     CASE: energy            _new < energy            _old

     new trust radius        =       0.0837303222 bohr
     new conv_thr            =       0.0000000038 Ry


ATOMIC_POSITIONS (angstrom)
Ti               0.0203782847        0.0486768078       16.1912791958
Ti               0.0291331002        8.3621570543       11.5803477355    0   0   0
Ti               2.0975368417        4.1651924041       13.6995846818    0   0   0
Ti               8.3795041056        2.0957563981        9.4724378689    0   0   0
Ti               8.3750099733        6.2687152092        9.4933225157    0   0   0
Ti               4.2170671874        6.2898439467        9.4911460380    0   0   0
Ti               8.3706959315        2.0992468883       13.7196199333    0   0   0
Ti               8.3814371399        6.2587905921       13.6914936631    0   0   0
Ti               4.2074509867        6.2621252961       13.6953624844    0   0   0
Ti               2.1260160428        6.2590809245       15.8174945912
Ti               6.2939315243        6.2935806988       15.7225229897
V                8.3803458653        4.1175456894       15.7330831819
V                4.2142238760        4.1304940634       15.6571907797
V                4.1453105473        4.2119457891       11.5975026988    0   0   0
V                2.1879867013        0.0520231596        9.5054883674    0   0   0
V                2.1522427348        4.1319303501        9.4904675789    0   0   0
V                2.0919720210       -0.0034525136       13.6809547049    0   0   0
V                6.2957223951        4.1813414611       13.7896152224    0   0   0
V                4.2104512702        2.0785028673       13.6089365586    0   0   0
V                2.1048639148        6.2714192178       11.5723879270    0   0   0
V                6.3158808164        6.1438819511       11.5700667150    0   0   0
Cr               4.2285038095        0.0072646939       15.5226890621
Cr               0.1179128009        4.1786640750       11.5195623927    0   0   0
Cr               4.1681598842        8.2577799257       11.6615352591    0   0   0
Cr               6.1999882077        0.1106418811        9.6948923906    0   0   0
Cr               6.2007452456        4.0563627707        9.3394942948    0   0   0
Cr               6.3039559766        8.3200573949       13.5345114413    0   0   0
Cr               4.2149984025        2.0754774019        9.7444374941    0   0   0
Cr               2.2252920440        2.0827246996       15.5376509585
Cr               6.1948796954        2.0212451982       15.5224196319
Cr               2.0054620409        2.1149661174       11.6192682974    0   0   0
Cr               6.3992485267        2.2488278238       11.6549867199    0   0   0
C                8.3671464633        0.0123762133        9.4921945368    0   0   0
C                8.3685510870        4.1683341954        9.4949958325    0   0   0
C                4.2233794382        0.0660683478        9.5137772640    0   0   0
C                4.2071394793        4.1170355077        9.4900603783    0   0   0
C                8.3753352139       -0.0047460034       13.6879749419    0   0   0
C                8.3555577743        4.1752016178       13.6998947017    0   0   0
C                4.2131653834        0.0054873094       13.6688163572    0   0   0
C                4.2220181648        4.1373219388       13.6924183861    0   0   0
C                2.1866131344        0.0750462676       15.8505921440
C                2.1088691803        4.0855167675       15.9073442980
C                6.2273460866        0.0708288167       15.8590067107
C                6.2903398176        4.1144560119       15.8689070895
C                2.1521326937        0.0175132539       11.5903255372    0   0   0
C                2.1078429860        4.1683083653       11.5671868517    0   0   0
C                6.2417937451        0.0188099573       11.6002801854    0   0   0
C                6.3283074126        4.1569384024       11.5682471185    0   0   0
C                8.3680774791        2.1613332832       15.8062416834
C                8.3735987980        6.2329767743       15.8187130169
C                4.2083316401        2.0411894599       15.7915862279
C                4.2225116971        6.3016945214       15.8589391196
C                0.0147673152        2.1438801594       11.5939557114    0   0   0
C                0.0200697416        6.2277703895       11.5821679336    0   0   0
C                4.2182428542        2.0594943016       11.6100232202    0   0   0
C                4.2117703951        6.2583221129       11.5919858628    0   0   0
C                2.1713130363        2.0860319016        9.4919958919    0   0   0
C                2.1164500536        6.2753611976        9.5156635851    0   0   0
C                6.2203151227        2.0809934926        9.4961719556    0   0   0
C                6.2861737462        6.2618311600        9.5257047400    0   0   0
C                2.1349207790        2.0551228178       13.6855329086    0   0   0
C                2.1043015435        6.2915359703       13.6724452320    0   0   0
C                6.2612712230        2.0678980813       13.6766563617    0   0   0
C                6.2981398968        6.2588382292       13.6653030130    0   0   0
C                2.1634780444        6.0860349505       18.0680200245
O                2.2200732110        5.8996442290       19.1955891332
O                8.3523453359        0.0557465916       18.0213371619
H                7.6408647522        0.4490409620       18.5465606303



     Writing config-only to output data dir ./tmp/hec3_CrTiV_f100_COOH_ads.save/ :
     XML data file
     NEW-OLD atomic charge density approx. for the potential

     Check: negative core charge=   -0.000005

     negative rho (up, down):  3.479E-02 0.000E+00

     total cpu time spent up to now is     1286.2 secs

     Self-consistent Calculation

     iteration #  1     ecut=    60.00 Ry     beta= 0.30
     Davidson diagonalization with overlap
     ethr =  1.00E-06,  avg # of iterations =  7.0

     negative rho (up, down):  3.475E-02 0.000E+00

     total cpu time spent up to now is     1297.2 secs

     total energy              =   -5386.57514972 Ry
     estimated scf accuracy    <       0.02597598 Ry

     iteration #  2     ecut=    60.00 Ry     beta= 0.30
     Davidson diagonalization with overlap
     ethr =  4.63E-06,  avg # of iterations = 14.0

     negative rho (up, down):  3.477E-02 0.000E+00

     total cpu time spent up to now is     1309.9 secs

     total energy              =   -5386.50878470 Ry
     estimated scf accuracy    <       3.99197455 Ry

     iteration #  3     ecut=    60.00 Ry     beta= 0.30
     Davidson diagonalization with overlap
     c_bands:  4 eigenvalues not converged
     ethr =  4.63E-06,  avg # of iterations = 20.0

     negative rho (up, down):  3.477E-02 0.000E+00

     total cpu time spent up to now is     1324.0 secs

     total energy              =   -5386.57089695 Ry
     estimated scf accuracy    <       0.74570123 Ry

     iteration #  4     ecut=    60.00 Ry     beta= 0.30
     Davidson diagonalization with overlap
     ethr =  4.63E-06,  avg # of iterations = 13.0

     negative rho (up, down):  3.475E-02 0.000E+00

     total cpu time spent up to now is     1334.6 secs

     total energy              =   -5386.58231621 Ry
     estimated scf accuracy    <       0.07816532 Ry

     iteration #  5     ecut=    60.00 Ry     beta= 0.30
     Davidson diagonalization with overlap
     ethr =  4.63E-06,  avg # of iterations =  2.0

     negative rho (up, down):  3.478E-02 0.000E+00

     total cpu time spent up to now is     1342.0 secs

     total energy              =   -5386.58405926 Ry
     estimated scf accuracy    <       0.03270441 Ry

     iteration #  6     ecut=    60.00 Ry     beta= 0.30
     Davidson diagonalization with overlap
     ethr =  4.63E-06,  avg # of iterations =  1.0

     negative rho (up, down):  3.478E-02 0.000E+00

     total cpu time spent up to now is     1349.0 secs

     total energy              =   -5386.58497299 Ry
     estimated scf accuracy    <       0.00669058 Ry

     iteration #  7     ecut=    60.00 Ry     beta= 0.30
     Davidson diagonalization with overlap
     ethr =  1.19E-06,  avg # of iterations = 10.0

     negative rho (up, down):  3.479E-02 0.000E+00

     total cpu time spent up to now is     1358.2 secs

     total energy              =   -5386.58527163 Ry
     estimated scf accuracy    <       0.00323441 Ry

     iteration #  8     ecut=    60.00 Ry     beta= 0.30
     Davidson diagonalization with overlap
     ethr =  5.77E-07,  avg # of iterations =  2.0

     negative rho (up, down):  3.479E-02 0.000E+00

     total cpu time spent up to now is     1365.3 secs

     total energy              =   -5386.58527822 Ry
     estimated scf accuracy    <       0.00426025 Ry

     iteration #  9     ecut=    60.00 Ry     beta= 0.30
     Davidson diagonalization with overlap
     ethr =  5.77E-07,  avg # of iterations =  1.0

     negative rho (up, down):  3.478E-02 0.000E+00

     total cpu time spent up to now is     1372.2 secs

     total energy              =   -5386.58540975 Ry
     estimated scf accuracy    <       0.00162846 Ry

     iteration # 10     ecut=    60.00 Ry     beta= 0.30
     Davidson diagonalization with overlap
     ethr =  2.90E-07,  avg # of iterations =  2.0

     negative rho (up, down):  3.478E-02 0.000E+00

     total cpu time spent up to now is     1379.1 secs

     total energy              =   -5386.58544244 Ry
     estimated scf accuracy    <       0.00095942 Ry

     iteration # 11     ecut=    60.00 Ry     beta= 0.30
     Davidson diagonalization with overlap
     ethr =  1.71E-07,  avg # of iterations =  2.0

     negative rho (up, down):  3.478E-02 0.000E+00

     total cpu time spent up to now is     1386.4 secs

     total energy              =   -5386.58543991 Ry
     estimated scf accuracy    <       0.00115359 Ry

     iteration # 12     ecut=    60.00 Ry     beta= 0.30
     Davidson diagonalization with overlap
     ethr =  1.71E-07,  avg # of iterations =  1.0

     negative rho (up, down):  3.478E-02 0.000E+00

     total cpu time spent up to now is     1393.5 secs

     total energy              =   -5386.58542310 Ry
     estimated scf accuracy    <       0.00153337 Ry

     iteration # 13     ecut=    60.00 Ry     beta= 0.30
     Davidson diagonalization with overlap
     ethr =  1.71E-07,  avg # of iterations =  2.0

     negative rho (up, down):  3.478E-02 0.000E+00

     total cpu time spent up to now is     1401.1 secs

     total energy              =   -5386.58534521 Ry
     estimated scf accuracy    <       0.00964079 Ry

     iteration # 14     ecut=    60.00 Ry     beta= 0.30
     Davidson diagonalization with overlap
     ethr =  1.71E-07,  avg # of iterations =  1.0

     negative rho (up, down):  3.478E-02 0.000E+00

     total cpu time spent up to now is     1407.8 secs

     total energy              =   -5386.58545758 Ry
     estimated scf accuracy    <       0.00187614 Ry

     iteration # 15     ecut=    60.00 Ry     beta= 0.30
     Davidson diagonalization with overlap
     ethr =  1.71E-07,  avg # of iterations =  1.0

     negative rho (up, down):  3.478E-02 0.000E+00

     total cpu time spent up to now is     1414.4 secs

     total energy              =   -5386.58550297 Ry
     estimated scf accuracy    <       0.00007509 Ry

     iteration # 16     ecut=    60.00 Ry     beta= 0.30
     Davidson diagonalization with overlap
     ethr =  1.34E-08,  avg # of iterations =  5.0

     negative rho (up, down):  3.478E-02 0.000E+00

     total cpu time spent up to now is     1422.1 secs

     total energy              =   -5386.58550619 Ry
     estimated scf accuracy    <       0.00003839 Ry

     iteration # 17     ecut=    60.00 Ry     beta= 0.30
     Davidson diagonalization with overlap
     ethr =  6.84E-09,  avg # of iterations =  5.0

     negative rho (up, down):  3.478E-02 0.000E+00

     total cpu time spent up to now is     1430.9 secs

     total energy              =   -5386.58550538 Ry
     estimated scf accuracy    <       0.00013098 Ry

     iteration # 18     ecut=    60.00 Ry     beta= 0.30
     Davidson diagonalization with overlap
     ethr =  6.84E-09,  avg # of iterations =  2.0

     negative rho (up, down):  3.478E-02 0.000E+00

     total cpu time spent up to now is     1437.8 secs

     total energy              =   -5386.58550907 Ry
     estimated scf accuracy    <       0.00001707 Ry

     iteration # 19     ecut=    60.00 Ry     beta= 0.30
     Davidson diagonalization with overlap
     ethr =  3.04E-09,  avg # of iterations =  2.0

     negative rho (up, down):  3.478E-02 0.000E+00

     total cpu time spent up to now is     1444.8 secs

     total energy              =   -5386.58550926 Ry
     estimated scf accuracy    <       0.00001467 Ry

     iteration # 20     ecut=    60.00 Ry     beta= 0.30
     Davidson diagonalization with overlap
     ethr =  2.61E-09,  avg # of iterations =  2.0

     negative rho (up, down):  3.478E-02 0.000E+00

     total cpu time spent up to now is     1452.1 secs

     total energy              =   -5386.58550945 Ry
     estimated scf accuracy    <       0.00001842 Ry

     iteration # 21     ecut=    60.00 Ry     beta= 0.30
     Davidson diagonalization with overlap
     ethr =  2.61E-09,  avg # of iterations =  2.0

     negative rho (up, down):  3.478E-02 0.000E+00

     total cpu time spent up to now is     1459.2 secs

     total energy              =   -5386.58550949 Ry
     estimated scf accuracy    <       0.00002320 Ry

     iteration # 22     ecut=    60.00 Ry     beta= 0.30
     Davidson diagonalization with overlap
     ethr =  2.61E-09,  avg # of iterations =  1.0

     negative rho (up, down):  3.478E-02 0.000E+00

     total cpu time spent up to now is     1466.2 secs

     total energy              =   -5386.58551027 Ry
     estimated scf accuracy    <       0.00000461 Ry

     iteration # 23     ecut=    60.00 Ry     beta= 0.30
     Davidson diagonalization with overlap
     ethr =  8.23E-10,  avg # of iterations =  2.0

     negative rho (up, down):  3.478E-02 0.000E+00

     total cpu time spent up to now is     1473.5 secs

     total energy              =   -5386.58551001 Ry
     estimated scf accuracy    <       0.00002280 Ry

     iteration # 24     ecut=    60.00 Ry     beta= 0.30
     Davidson diagonalization with overlap
     ethr =  8.23E-10,  avg # of iterations =  2.0

     negative rho (up, down):  3.478E-02 0.000E+00

     total cpu time spent up to now is     1480.9 secs

     total energy              =   -5386.58551003 Ry
     estimated scf accuracy    <       0.00002698 Ry

     iteration # 25     ecut=    60.00 Ry     beta= 0.30
     Davidson diagonalization with overlap
     ethr =  8.23E-10,  avg # of iterations =  1.0

     negative rho (up, down):  3.478E-02 0.000E+00

     total cpu time spent up to now is     1487.9 secs

     total energy              =   -5386.58551032 Ry
     estimated scf accuracy    <       0.00000168 Ry

     iteration # 26     ecut=    60.00 Ry     beta= 0.30
     Davidson diagonalization with overlap
     ethr =  2.99E-10,  avg # of iterations =  6.0

     negative rho (up, down):  3.478E-02 0.000E+00

     total cpu time spent up to now is     1496.8 secs

     total energy              =   -5386.58550988 Ry
     estimated scf accuracy    <       0.00002718 Ry

     iteration # 27     ecut=    60.00 Ry     beta= 0.30
     Davidson diagonalization with overlap
     ethr =  2.99E-10,  avg # of iterations =  5.0

     negative rho (up, down):  3.478E-02 0.000E+00

     total cpu time spent up to now is     1505.3 secs

     total energy              =   -5386.58551055 Ry
     estimated scf accuracy    <       0.00000071 Ry

     iteration # 28     ecut=    60.00 Ry     beta= 0.30
     Davidson diagonalization with overlap
     ethr =  1.26E-10,  avg # of iterations =  5.0

     negative rho (up, down):  3.478E-02 0.000E+00

     total cpu time spent up to now is     1513.5 secs

     total energy              =   -5386.58551056 Ry
     estimated scf accuracy    <       0.00000067 Ry

     iteration # 29     ecut=    60.00 Ry     beta= 0.30
     Davidson diagonalization with overlap
     ethr =  1.20E-10,  avg # of iterations =  2.0

     negative rho (up, down):  3.478E-02 0.000E+00

     total cpu time spent up to now is     1520.8 secs

     total energy              =   -5386.58551056 Ry
     estimated scf accuracy    <       0.00000078 Ry

     iteration # 30     ecut=    60.00 Ry     beta= 0.30
     Davidson diagonalization with overlap
     ethr =  1.20E-10,  avg # of iterations =  2.0

     negative rho (up, down):  3.478E-02 0.000E+00

     total cpu time spent up to now is     1528.1 secs

     total energy              =   -5386.58551057 Ry
     estimated scf accuracy    <       0.00000114 Ry

     iteration # 31     ecut=    60.00 Ry     beta= 0.30
     Davidson diagonalization with overlap
     ethr =  1.20E-10,  avg # of iterations =  1.0

     negative rho (up, down):  3.478E-02 0.000E+00

     total cpu time spent up to now is     1535.0 secs

     total energy              =   -5386.58551060 Ry
     estimated scf accuracy    <       0.00000016 Ry

     iteration # 32     ecut=    60.00 Ry     beta= 0.30
     Davidson diagonalization with overlap
     ethr =  2.86E-11,  avg # of iterations =  2.0

     negative rho (up, down):  3.478E-02 0.000E+00

     total cpu time spent up to now is     1542.3 secs

     total energy              =   -5386.58551061 Ry
     estimated scf accuracy    <       0.00000020 Ry

     iteration # 33     ecut=    60.00 Ry     beta= 0.30
     Davidson diagonalization with overlap
     ethr =  2.86E-11,  avg # of iterations =  1.0

     negative rho (up, down):  3.478E-02 0.000E+00

     total cpu time spent up to now is     1549.5 secs

     total energy              =   -5386.58551061 Ry
     estimated scf accuracy    <       0.00000008 Ry

     iteration # 34     ecut=    60.00 Ry     beta= 0.30
     Davidson diagonalization with overlap
     ethr =  1.38E-11,  avg # of iterations =  2.0

     negative rho (up, down):  3.478E-02 0.000E+00

     total cpu time spent up to now is     1556.9 secs

     total energy              =   -5386.58551061 Ry
     estimated scf accuracy    <       0.00000006 Ry

     iteration # 35     ecut=    60.00 Ry     beta= 0.30
     Davidson diagonalization with overlap
     ethr =  1.03E-11,  avg # of iterations =  5.0

     negative rho (up, down):  3.478E-02 0.000E+00

     total cpu time spent up to now is     1565.2 secs

     total energy              =   -5386.58551061 Ry
     estimated scf accuracy    <       0.00000025 Ry

     iteration # 36     ecut=    60.00 Ry     beta= 0.30
     Davidson diagonalization with overlap
     ethr =  1.03E-11,  avg # of iterations =  5.0

     negative rho (up, down):  3.478E-02 0.000E+00

     total cpu time spent up to now is     1573.3 secs

     total energy              =   -5386.58551061 Ry
     estimated scf accuracy    <       0.00000014 Ry

     iteration # 37     ecut=    60.00 Ry     beta= 0.30
     Davidson diagonalization with overlap
     ethr =  1.03E-11,  avg # of iterations =  1.0

     negative rho (up, down):  3.478E-02 0.000E+00

     total cpu time spent up to now is     1580.0 secs

     total energy              =   -5386.58551062 Ry
     estimated scf accuracy    <       0.00000009 Ry

     iteration # 38     ecut=    60.00 Ry     beta= 0.30
     Davidson diagonalization with overlap
     ethr =  1.03E-11,  avg # of iterations =  1.0

     negative rho (up, down):  3.478E-02 0.000E+00

     total cpu time spent up to now is     1587.1 secs

     total energy              =   -5386.58551062 Ry
     estimated scf accuracy    <       0.00000002 Ry

     iteration # 39     ecut=    60.00 Ry     beta= 0.30
     Davidson diagonalization with overlap
     ethr =  3.75E-12,  avg # of iterations =  2.0

     negative rho (up, down):  3.478E-02 0.000E+00

     total cpu time spent up to now is     1594.2 secs

     total energy              =   -5386.58551062 Ry
     estimated scf accuracy    <       0.00000003 Ry

     iteration # 40     ecut=    60.00 Ry     beta= 0.30
     Davidson diagonalization with overlap
     ethr =  3.75E-12,  avg # of iterations =  1.0

     negative rho (up, down):  3.478E-02 0.000E+00

     total cpu time spent up to now is     1601.1 secs

     total energy              =   -5386.58551062 Ry
     estimated scf accuracy    <       0.00000002 Ry

     iteration # 41     ecut=    60.00 Ry     beta= 0.30
     Davidson diagonalization with overlap
     ethr =  3.26E-12,  avg # of iterations =  1.0

     negative rho (up, down):  3.478E-02 0.000E+00

     total cpu time spent up to now is     1608.1 secs

     total energy              =   -5386.58551062 Ry
     estimated scf accuracy    <       0.00000002 Ry

     iteration # 42     ecut=    60.00 Ry     beta= 0.30
     Davidson diagonalization with overlap
     ethr =  3.26E-12,  avg # of iterations =  1.0

     negative rho (up, down):  3.478E-02 0.000E+00

     total cpu time spent up to now is     1615.1 secs

     total energy              =   -5386.58551062 Ry
     estimated scf accuracy    <          6.9E-09 Ry

     iteration # 43     ecut=    60.00 Ry     beta= 0.30
     Davidson diagonalization with overlap
     ethr =  1.22E-12,  avg # of iterations =  1.0

     negative rho (up, down):  3.478E-02 0.000E+00

     total cpu time spent up to now is     1621.8 secs

     End of self-consistent calculation

          k = 0.0000 0.0000 0.0000 ( 46961 PWs)   bands (ev):

   -69.5251 -69.5237 -69.5022 -69.4952 -69.4646 -69.4564 -69.4330 -69.4221
   -69.4146 -69.3950 -69.2309 -62.0416 -62.0287 -62.0255 -61.9898 -61.9038
   -61.9037 -61.8990 -61.8909 -61.8190 -61.7358 -54.3377 -54.2657 -54.2575
   -54.1146 -53.9555 -53.9176 -53.8935 -53.8913 -53.8685 -53.8543 -53.6637
   -41.0025 -40.9529 -40.9468 -40.9263 -40.9240 -40.9052 -40.8969 -40.8958
   -40.8792 -40.8743 -40.8667 -40.8559 -40.8515 -40.8331 -40.8287 -40.8198
   -40.8040 -40.7961 -40.7923 -40.7831 -40.7785 -40.7759 -40.7580 -40.7531
   -40.7295 -40.7234 -40.7178 -40.7151 -40.6838 -40.6698 -40.6618 -40.5915
   -40.4505 -36.0253 -35.9935 -35.9632 -35.9578 -35.9436 -35.9217 -35.9023
   -35.8825 -35.8546 -35.8474 -35.8261 -35.8220 -35.8186 -35.8148 -35.7974
   -35.7829 -35.7775 -35.7697 -35.7660 -35.7551 -35.7395 -35.7357 -35.7095
   -35.7051 -35.7012 -35.6784 -35.6757 -35.6409 -35.5800 -35.4805 -30.7949
   -30.6920 -30.6666 -30.5859 -30.5391 -30.5241 -30.5178 -30.5153 -30.5085
   -30.4978 -30.4293 -30.4149 -30.3841 -30.3567 -30.3401 -30.3252 -30.3106
   -30.3061 -30.2976 -30.2705 -30.2583 -30.2249 -30.2194 -30.1896 -30.1617
   -30.1402 -30.1254 -30.1097 -30.0908 -30.0722 -30.0220 -29.9808 -29.9222
   -21.7661 -16.3902 -10.7116  -9.6370  -9.2426  -9.1658  -9.0550  -8.9159
    -8.5613  -8.3700  -8.3167  -8.2707  -8.2081  -8.1282  -8.0511  -7.9386
    -7.9030  -7.7669  -7.6881  -7.6186  -7.5341  -7.4849  -7.4300  -7.4051
    -7.3752  -7.3474  -7.2369  -7.1943  -7.0931  -7.0029  -6.8453  -6.7750
    -6.7532  -6.6563  -6.4390  -4.3731  -4.3464  -4.1334  -3.9056  -3.8651
    -3.7993  -3.6773  -3.2031  -2.9413  -2.8138  -2.7054  -2.6722  -2.6125
    -2.5703  -2.4576  -2.4429  -2.3715  -2.3237  -2.3117  -2.1552  -2.0645
    -2.0214  -1.9371  -1.7937  -1.7817  -1.7542  -1.7189  -1.6005  -1.5189
    -1.4820  -1.4265  -1.4166  -1.3632  -1.3419  -1.3258  -1.3120  -1.2969
    -1.2792  -1.2716  -1.2425  -1.2311  -1.1915  -1.1618  -1.1384  -1.0517
    -1.0361  -0.9918  -0.9528  -0.9297  -0.9154  -0.8524  -0.8317  -0.7868
    -0.7527  -0.7469  -0.7105  -0.6770  -0.6640  -0.6439  -0.6253  -0.5965
    -0.5830  -0.5589  -0.5434  -0.5307  -0.5073  -0.5020  -0.3381  -0.3133
    -0.2909  -0.2601  -0.1942  -0.1520  -0.1245  -0.0666  -0.0045   0.0324
     0.0746   0.1007   0.1583   0.1802   0.2376   0.3008   0.3218   0.5077
     0.5307   0.6490   0.6891   0.7797   0.8151   0.9561   1.0048   1.0346
     1.1231   1.1702   1.2678   1.3270   1.3491   1.4520   1.4766   1.5249
     1.5495   1.7833   1.8185   1.8603   1.9104   1.9794   2.1577   2.1956
     2.3038   2.6132   2.6880   2.7282   2.7714   2.8370   2.9249   2.9872
     3.0095   3.0449   3.1124   3.1334   3.1765   3.2002   3.2344   3.2859
     3.2990   3.3185   3.3364   3.3778   3.4167   3.4211   3.4353   3.4750
     3.4971   3.5248   3.5681   3.6071   3.6624   3.6911   3.7049   3.7560
     3.7840   3.8302   3.8783   3.8892   3.9531   3.9737   4.0286   4.0375
     4.0765   4.0880   4.1375   4.1592   4.1802   4.2182   4.2492   4.2618
     4.2947   4.3250   4.3787   4.4240   4.4671   4.4903   4.5243   4.5647
     4.6030   4.6275   4.6637   4.7192   4.7557   4.7985   4.8187   4.8717
     4.8992

     the Fermi energy is     3.0089 ev

!    total energy              =   -5386.58551062 Ry
     estimated scf accuracy    <          1.3E-09 Ry
     smearing contrib. (-TS)   =      -0.03061650 Ry
     internal energy E=F+TS    =   -5386.55489412 Ry

     The total energy is F=E-TS. E is the sum of the following terms:
     one-electron contribution =  -55980.36030225 Ry
     hartree contribution      =   28023.75831391 Ry
     xc contribution           =    -807.35330541 Ry
     ewald contribution        =   23600.22878791 Ry
     one-center paw contrib.   =    -222.82838828 Ry

     convergence has been achieved in  43 iterations

     negative rho (up, down):  3.478E-02 0.000E+00

     Forces acting on atoms (cartesian axes, Ry/au):

     atom    1 type  1   force =     0.00236698    0.00027866   -0.01068217
     atom    2 type  1   force =    -0.00305167   -0.00675287    0.00553008
     atom    3 type  1   force =    -0.00951921    0.03547319   -0.01066671
     atom    4 type  1   force =     0.00029614   -0.01574259    0.02902749
     atom    5 type  1   force =    -0.00310064    0.01091416   -0.00033237
     atom    6 type  1   force =     0.00827687   -0.00249145    0.02811475
     atom    7 type  1   force =     0.00034211   -0.02269311   -0.01693856
     atom    8 type  1   force =     0.01360819    0.02105864    0.00920952
     atom    9 type  1   force =    -0.01340799   -0.00846051   -0.03398587
     atom   10 type  1   force =     0.00101431   -0.00283392   -0.00237381
     atom   11 type  1   force =     0.00069900   -0.00486304    0.01031110
     atom   12 type  2   force =    -0.00150859   -0.00777737   -0.00930839
     atom   13 type  2   force =     0.00735214   -0.00683294   -0.00223392
     atom   14 type  2   force =     0.02432524   -0.00738808    0.01941983
     atom   15 type  2   force =    -0.01198094   -0.00029255    0.11465195
     atom   16 type  2   force =     0.00506611    0.00067960    0.09535841
     atom   17 type  2   force =    -0.04650941   -0.02894364   -0.02345370
     atom   18 type  2   force =     0.00813106    0.01990045   -0.03247037
     atom   19 type  2   force =    -0.00802505    0.01553618   -0.03633777
     atom   20 type  2   force =    -0.00098542   -0.01083394    0.00451223
     atom   21 type  2   force =     0.00846623    0.01567343   -0.00438826
     atom   22 type  3   force =    -0.00222093   -0.00754135    0.00847379
     atom   23 type  3   force =    -0.02320878   -0.01111077   -0.00570013
     atom   24 type  3   force =     0.01766119    0.01361918   -0.01610252
     atom   25 type  3   force =     0.01685488   -0.01299395    0.06595613
     atom   26 type  3   force =    -0.00447809    0.01203822    0.12501574
     atom   27 type  3   force =     0.03824081   -0.00829373    0.00693908
     atom   28 type  3   force =    -0.00705866    0.00103321    0.04170855
     atom   29 type  3   force =     0.01583947   -0.00547412    0.01902122
     atom   30 type  3   force =    -0.01187739   -0.00696044    0.01621440
     atom   31 type  3   force =     0.00293672   -0.00162012   -0.00917670
     atom   32 type  3   force =    -0.00647897    0.00107474   -0.00704822
     atom   33 type  4   force =    -0.00006233   -0.00724358   -0.03465313
     atom   34 type  4   force =     0.00965509    0.01245942   -0.00354015
     atom   35 type  4   force =    -0.00210859   -0.01773976   -0.02299974
     atom   36 type  4   force =     0.00112272    0.01060952   -0.03644069
     atom   37 type  4   force =     0.00207196    0.00081741    0.02853785
     atom   38 type  4   force =     0.00391586   -0.00752957    0.02614384
     atom   39 type  4   force =     0.00466643    0.00119680    0.02265090
     atom   40 type  4   force =    -0.00037917   -0.00219072    0.00874711
     atom   41 type  4   force =     0.00041728    0.00696204   -0.00097111
     atom   42 type  4   force =    -0.00012121    0.00300690    0.00649750
     atom   43 type  4   force =     0.00007875    0.00468802    0.00300565
     atom   44 type  4   force =    -0.00307672    0.00378668    0.00272839
     atom   45 type  4   force =     0.00731970    0.00864320   -0.04292003
     atom   46 type  4   force =     0.00264651   -0.00022563   -0.04478022
     atom   47 type  4   force =    -0.00816700    0.00125689   -0.03283085
     atom   48 type  4   force =    -0.01347051   -0.01172147   -0.02410893
     atom   49 type  4   force =    -0.00584128   -0.00811794   -0.00953656
     atom   50 type  4   force =     0.00254891    0.01566920   -0.01443740
     atom   51 type  4   force =    -0.00223341    0.00404212   -0.00451404
     atom   52 type  4   force =    -0.00158629    0.00731898   -0.00624973
     atom   53 type  4   force =    -0.00248774    0.00251920   -0.03059055
     atom   54 type  4   force =    -0.00671624    0.00503974   -0.04358949
     atom   55 type  4   force =    -0.00024670    0.00726954   -0.03042284
     atom   56 type  4   force =    -0.00196424   -0.00673452   -0.03126482
     atom   57 type  4   force =    -0.01597450    0.00814745   -0.02903286
     atom   58 type  4   force =    -0.00930069   -0.00594807   -0.03903814
     atom   59 type  4   force =     0.01457413    0.01139766   -0.03194585
     atom   60 type  4   force =     0.00208997   -0.01058327   -0.02289374
     atom   61 type  4   force =     0.00438383    0.00184297    0.00808214
     atom   62 type  4   force =     0.00234753   -0.00360767    0.02978506
     atom   63 type  4   force =     0.00114109   -0.00056618   -0.00015227
     atom   64 type  4   force =    -0.00170427   -0.00499018    0.02192464
     atom   65 type  4   force =     0.00008651   -0.00239994   -0.00075131
     atom   66 type  5   force =    -0.00121662    0.00371638   -0.00978214
     atom   67 type  5   force =    -0.00004608    0.00057982    0.00750604
     atom   68 type  6   force =    -0.00042840    0.00124940    0.00357266

     Total force =     0.053746     Total SCF correction =     0.000042
     Energy error            =      4.2E-03 Ry
     Gradient error          =      1.9E-02 Ry/Bohr

     number of scf cycles    =   4
     number of bfgs steps    =   3

     energy             old  =   -5386.5813437867 Ry
     energy             new  =   -5386.5855106163 Ry

     CASE: energy            _new < energy            _old

     new trust radius        =       0.1298491074 bohr
     new conv_thr            =       0.0000000019 Ry


ATOMIC_POSITIONS (angstrom)
Ti               0.0222201937        0.0418453728       16.1864119328
Ti               0.0291331002        8.3621570543       11.5803477355    0   0   0
Ti               2.0975368417        4.1651924041       13.6995846818    0   0   0
Ti               8.3795041056        2.0957563981        9.4724378689    0   0   0
Ti               8.3750099733        6.2687152092        9.4933225157    0   0   0
Ti               4.2170671874        6.2898439467        9.4911460380    0   0   0
Ti               8.3706959315        2.0992468883       13.7196199333    0   0   0
Ti               8.3814371399        6.2587905921       13.6914936631    0   0   0
Ti               4.2074509867        6.2621252961       13.6953624844    0   0   0
Ti               2.1257463827        6.2543813756       15.8082266297
Ti               6.2993650407        6.2893124242       15.7144681548
V                8.3844990990        4.1004610712       15.7443360391
V                4.2209731136        4.1265024393       15.6545500779
V                4.1453105473        4.2119457891       11.5975026988    0   0   0
V                2.1879867013        0.0520231596        9.5054883674    0   0   0
V                2.1522427348        4.1319303501        9.4904675789    0   0   0
V                2.0919720210       -0.0034525136       13.6809547049    0   0   0
V                6.2957223951        4.1813414611       13.7896152224    0   0   0
V                4.2104512702        2.0785028673       13.6089365586    0   0   0
V                2.1048639148        6.2714192178       11.5723879270    0   0   0
V                6.3158808164        6.1438819511       11.5700667150    0   0   0
Cr               4.2317272883       -0.0284463281       15.5224236134
Cr               0.1179128009        4.1786640750       11.5195623927    0   0   0
Cr               4.1681598842        8.2577799257       11.6615352591    0   0   0
Cr               6.1999882077        0.1106418811        9.6948923906    0   0   0
Cr               6.2007452456        4.0563627707        9.3394942948    0   0   0
Cr               6.3039559766        8.3200573949       13.5345114413    0   0   0
Cr               4.2149984025        2.0754774019        9.7444374941    0   0   0
Cr               2.2552207352        2.0854493380       15.5384365849
Cr               6.1776249496        2.0064867119       15.5232449594
Cr               2.0054620409        2.1149661174       11.6192682974    0   0   0
Cr               6.3992485267        2.2488278238       11.6549867199    0   0   0
C                8.3671464633        0.0123762133        9.4921945368    0   0   0
C                8.3685510870        4.1683341954        9.4949958325    0   0   0
C                4.2233794382        0.0660683478        9.5137772640    0   0   0
C                4.2071394793        4.1170355077        9.4900603783    0   0   0
C                8.3753352139       -0.0047460034       13.6879749419    0   0   0
C                8.3555577743        4.1752016178       13.6998947017    0   0   0
C                4.2131653834        0.0054873094       13.6688163572    0   0   0
C                4.2220181648        4.1373219388       13.6924183861    0   0   0
C                2.1859940619        0.0859714804       15.8520697215
C                2.1033669876        4.0841345004       15.9244139458
C                6.2252362009        0.0771457719       15.8779556409
C                6.2914988680        4.1187725195       15.8760582573
C                2.1521326937        0.0175132539       11.5903255372    0   0   0
C                2.1078429860        4.1683083653       11.5671868517    0   0   0
C                6.2417937451        0.0188099573       11.6002801854    0   0   0
C                6.3283074126        4.1569384024       11.5682471185    0   0   0
C                8.3543458627        2.1601827720       15.7672014327
C                8.3738958960        6.2623689767       15.7566041412
C                4.2065653930        2.0365480222       15.7881782683
C                4.2230717773        6.3229235428       15.8429639374
C                0.0147673152        2.1438801594       11.5939557114    0   0   0
C                0.0200697416        6.2277703895       11.5821679336    0   0   0
C                4.2182428542        2.0594943016       11.6100232202    0   0   0
C                4.2117703951        6.2583221129       11.5919858628    0   0   0
C                2.1713130363        2.0860319016        9.4919958919    0   0   0
C                2.1164500536        6.2753611976        9.5156635851    0   0   0
C                6.2203151227        2.0809934926        9.4961719556    0   0   0
C                6.2861737462        6.2618311600        9.5257047400    0   0   0
C                2.1349207790        2.0551228178       13.6855329086    0   0   0
C                2.1043015435        6.2915359703       13.6724452320    0   0   0
C                6.2612712230        2.0678980813       13.6766563617    0   0   0
C                6.2981398968        6.2588382292       13.6653030130    0   0   0
C                2.1662362115        6.0773096997       18.0478785703
O                2.2158597695        5.9092972246       19.1873855221
O                8.3504695910        0.0586292565       18.0263415178
H                7.6422389496        0.4514516075       18.5532477480



     Writing config-only to output data dir ./tmp/hec3_CrTiV_f100_COOH_ads.save/ :
     XML data file
     NEW-OLD atomic charge density approx. for the potential

     Check: negative core charge=   -0.000005

     negative rho (up, down):  3.482E-02 0.000E+00

     total cpu time spent up to now is     1634.2 secs

     Self-consistent Calculation

     iteration #  1     ecut=    60.00 Ry     beta= 0.30
     Davidson diagonalization with overlap
     ethr =  1.00E-06,  avg # of iterations =  8.0

     negative rho (up, down):  3.481E-02 0.000E+00

     total cpu time spent up to now is     1646.3 secs

     total energy              =   -5386.58081205 Ry
     estimated scf accuracy    <       0.02853437 Ry

     iteration #  2     ecut=    60.00 Ry     beta= 0.30
     Davidson diagonalization with overlap
     c_bands:  1 eigenvalues not converged
     ethr =  5.09E-06,  avg # of iterations = 20.0

     negative rho (up, down):  3.481E-02 0.000E+00

     total cpu time spent up to now is     1659.1 secs

     total energy              =   -5386.55909388 Ry
     estimated scf accuracy    <       0.81158977 Ry

     iteration #  3     ecut=    60.00 Ry     beta= 0.30
     Davidson diagonalization with overlap
     ethr =  5.09E-06,  avg # of iterations = 14.0

     negative rho (up, down):  3.480E-02 0.000E+00

     total cpu time spent up to now is     1670.3 secs

     total energy              =   -5386.58142843 Ry
     estimated scf accuracy    <       0.30248627 Ry

     iteration #  4     ecut=    60.00 Ry     beta= 0.30
     Davidson diagonalization with overlap
     ethr =  5.09E-06,  avg # of iterations =  5.0

     negative rho (up, down):  3.482E-02 0.000E+00

     total cpu time spent up to now is     1678.3 secs

     total energy              =   -5386.58579900 Ry
     estimated scf accuracy    <       0.16142735 Ry

     iteration #  5     ecut=    60.00 Ry     beta= 0.30
     Davidson diagonalization with overlap
     ethr =  5.09E-06,  avg # of iterations =  2.0

     negative rho (up, down):  3.483E-02 0.000E+00

     total cpu time spent up to now is     1685.9 secs

     total energy              =   -5386.58801350 Ry
     estimated scf accuracy    <       0.05351468 Ry

     iteration #  6     ecut=    60.00 Ry     beta= 0.30
     Davidson diagonalization with overlap
     ethr =  5.09E-06,  avg # of iterations =  2.0

     negative rho (up, down):  3.481E-02 0.000E+00

     total cpu time spent up to now is     1693.2 secs

     total energy              =   -5386.58884635 Ry
     estimated scf accuracy    <       0.02770886 Ry

     iteration #  7     ecut=    60.00 Ry     beta= 0.30
     Davidson diagonalization with overlap
     ethr =  4.94E-06,  avg # of iterations =  1.0

     negative rho (up, down):  3.484E-02 0.000E+00

     total cpu time spent up to now is     1699.9 secs

     total energy              =   -5386.58932406 Ry
     estimated scf accuracy    <       0.01460963 Ry

     iteration #  8     ecut=    60.00 Ry     beta= 0.30
     Davidson diagonalization with overlap
     ethr =  2.60E-06,  avg # of iterations =  2.0

     negative rho (up, down):  3.484E-02 0.000E+00

     total cpu time spent up to now is     1707.2 secs

     total energy              =   -5386.58946922 Ry
     estimated scf accuracy    <       0.01359275 Ry

     iteration #  9     ecut=    60.00 Ry     beta= 0.30
     Davidson diagonalization with overlap
     ethr =  2.42E-06,  avg # of iterations =  1.0

     negative rho (up, down):  3.483E-02 0.000E+00

     total cpu time spent up to now is     1713.9 secs

     total energy              =   -5386.58986616 Ry
     estimated scf accuracy    <       0.00404970 Ry

     iteration # 10     ecut=    60.00 Ry     beta= 0.30
     Davidson diagonalization with overlap
     ethr =  7.22E-07,  avg # of iterations =  2.0

     negative rho (up, down):  3.483E-02 0.000E+00

     total cpu time spent up to now is     1721.4 secs

     total energy              =   -5386.58999089 Ry
     estimated scf accuracy    <       0.00074207 Ry

     iteration # 11     ecut=    60.00 Ry     beta= 0.30
     Davidson diagonalization with overlap
     ethr =  1.32E-07,  avg # of iterations =  5.0

     negative rho (up, down):  3.483E-02 0.000E+00

     total cpu time spent up to now is     1730.2 secs

     total energy              =   -5386.59000143 Ry
     estimated scf accuracy    <       0.00111248 Ry

     iteration # 12     ecut=    60.00 Ry     beta= 0.30
     Davidson diagonalization with overlap
     ethr =  1.32E-07,  avg # of iterations =  5.0

     negative rho (up, down):  3.483E-02 0.000E+00

     total cpu time spent up to now is     1738.0 secs

     total energy              =   -5386.59001963 Ry
     estimated scf accuracy    <       0.00092391 Ry

     iteration # 13     ecut=    60.00 Ry     beta= 0.30
     Davidson diagonalization with overlap
     ethr =  1.32E-07,  avg # of iterations =  2.0

     negative rho (up, down):  3.483E-02 0.000E+00

     total cpu time spent up to now is     1745.0 secs

     total energy              =   -5386.59002200 Ry
     estimated scf accuracy    <       0.00238902 Ry

     iteration # 14     ecut=    60.00 Ry     beta= 0.30
     Davidson diagonalization with overlap
     ethr =  1.32E-07,  avg # of iterations =  1.0

     negative rho (up, down):  3.483E-02 0.000E+00

     total cpu time spent up to now is     1751.5 secs

     total energy              =   -5386.59006796 Ry
     estimated scf accuracy    <       0.00084441 Ry

     iteration # 15     ecut=    60.00 Ry     beta= 0.30
     Davidson diagonalization with overlap
     ethr =  1.32E-07,  avg # of iterations =  1.0

     negative rho (up, down):  3.483E-02 0.000E+00

     total cpu time spent up to now is     1758.4 secs

     total energy              =   -5386.59008040 Ry
     estimated scf accuracy    <       0.00008861 Ry

     iteration # 16     ecut=    60.00 Ry     beta= 0.30
     Davidson diagonalization with overlap
     ethr =  1.58E-08,  avg # of iterations =  5.0

     negative rho (up, down):  3.483E-02 0.000E+00

     total cpu time spent up to now is     1766.8 secs

     total energy              =   -5386.59007069 Ry
     estimated scf accuracy    <       0.00079560 Ry

     iteration # 17     ecut=    60.00 Ry     beta= 0.30
     Davidson diagonalization with overlap
     ethr =  1.58E-08,  avg # of iterations =  2.0

     negative rho (up, down):  3.483E-02 0.000E+00

     total cpu time spent up to now is     1774.0 secs

     total energy              =   -5386.59008661 Ry
     estimated scf accuracy    <       0.00005154 Ry

     iteration # 18     ecut=    60.00 Ry     beta= 0.30
     Davidson diagonalization with overlap
     ethr =  9.19E-09,  avg # of iterations =  5.0

     negative rho (up, down):  3.483E-02 0.000E+00

     total cpu time spent up to now is     1782.4 secs

     total energy              =   -5386.59008684 Ry
     estimated scf accuracy    <       0.00009016 Ry

     iteration # 19     ecut=    60.00 Ry     beta= 0.30
     Davidson diagonalization with overlap
     ethr =  9.19E-09,  avg # of iterations =  2.0

     negative rho (up, down):  3.483E-02 0.000E+00

     total cpu time spent up to now is     1789.7 secs

     total energy              =   -5386.59008777 Ry
     estimated scf accuracy    <       0.00005449 Ry

     iteration # 20     ecut=    60.00 Ry     beta= 0.30
     Davidson diagonalization with overlap
     ethr =  9.19E-09,  avg # of iterations =  1.0

     negative rho (up, down):  3.483E-02 0.000E+00

     total cpu time spent up to now is     1796.6 secs

     total energy              =   -5386.59008926 Ry
     estimated scf accuracy    <       0.00002043 Ry

     iteration # 21     ecut=    60.00 Ry     beta= 0.30
     Davidson diagonalization with overlap
     ethr =  3.64E-09,  avg # of iterations =  2.0

     negative rho (up, down):  3.483E-02 0.000E+00

     total cpu time spent up to now is     1804.1 secs

     total energy              =   -5386.59008958 Ry
     estimated scf accuracy    <       0.00002359 Ry

     iteration # 22     ecut=    60.00 Ry     beta= 0.30
     Davidson diagonalization with overlap
     ethr =  3.64E-09,  avg # of iterations =  1.0

     negative rho (up, down):  3.483E-02 0.000E+00

     total cpu time spent up to now is     1810.6 secs

     total energy              =   -5386.59009009 Ry
     estimated scf accuracy    <       0.00001351 Ry

     iteration # 23     ecut=    60.00 Ry     beta= 0.30
     Davidson diagonalization with overlap
     ethr =  2.41E-09,  avg # of iterations =  2.0

     negative rho (up, down):  3.483E-02 0.000E+00

     total cpu time spent up to now is     1817.8 secs

     total energy              =   -5386.59009034 Ry
     estimated scf accuracy    <       0.00001842 Ry

     iteration # 24     ecut=    60.00 Ry     beta= 0.30
     Davidson diagonalization with overlap
     ethr =  2.41E-09,  avg # of iterations =  1.0

     negative rho (up, down):  3.483E-02 0.000E+00

     total cpu time spent up to now is     1824.9 secs

     total energy              =   -5386.59009035 Ry
     estimated scf accuracy    <       0.00000505 Ry

     iteration # 25     ecut=    60.00 Ry     beta= 0.30
     Davidson diagonalization with overlap
     ethr =  9.00E-10,  avg # of iterations =  5.0

     negative rho (up, down):  3.483E-02 0.000E+00

     total cpu time spent up to now is     1833.2 secs

     total energy              =   -5386.59008913 Ry
     estimated scf accuracy    <       0.00009991 Ry

     iteration # 26     ecut=    60.00 Ry     beta= 0.30
     Davidson diagonalization with overlap
     ethr =  9.00E-10,  avg # of iterations =  5.0

     negative rho (up, down):  3.483E-02 0.000E+00

     total cpu time spent up to now is     1841.4 secs

     total energy              =   -5386.59009047 Ry
     estimated scf accuracy    <       0.00001365 Ry

     iteration # 27     ecut=    60.00 Ry     beta= 0.30
     Davidson diagonalization with overlap
     ethr =  9.00E-10,  avg # of iterations =  2.0

     negative rho (up, down):  3.483E-02 0.000E+00

     total cpu time spent up to now is     1848.4 secs

     total energy              =   -5386.59009072 Ry
     estimated scf accuracy    <       0.00000830 Ry

     iteration # 28     ecut=    60.00 Ry     beta= 0.30
     Davidson diagonalization with overlap
     ethr =  9.00E-10,  avg # of iterations =  2.0

     negative rho (up, down):  3.483E-02 0.000E+00

     total cpu time spent up to now is     1855.7 secs

     total energy              =   -5386.59009087 Ry
     estimated scf accuracy    <       0.00000398 Ry

     iteration # 29     ecut=    60.00 Ry     beta= 0.30
     Davidson diagonalization with overlap
     ethr =  7.10E-10,  avg # of iterations =  1.0

     negative rho (up, down):  3.483E-02 0.000E+00

     total cpu time spent up to now is     1862.6 secs

     total energy              =   -5386.59009096 Ry
     estimated scf accuracy    <       0.00000107 Ry

     iteration # 30     ecut=    60.00 Ry     beta= 0.30
     Davidson diagonalization with overlap
     ethr =  1.90E-10,  avg # of iterations =  2.0

     negative rho (up, down):  3.483E-02 0.000E+00

     total cpu time spent up to now is     1869.8 secs

     total energy              =   -5386.59009097 Ry
     estimated scf accuracy    <       0.00000145 Ry

     iteration # 31     ecut=    60.00 Ry     beta= 0.30
     Davidson diagonalization with overlap
     ethr =  1.90E-10,  avg # of iterations =  1.0

     negative rho (up, down):  3.483E-02 0.000E+00

     total cpu time spent up to now is     1876.6 secs

     total energy              =   -5386.59009102 Ry
     estimated scf accuracy    <       0.00000045 Ry

     iteration # 32     ecut=    60.00 Ry     beta= 0.30
     Davidson diagonalization with overlap
     ethr =  8.04E-11,  avg # of iterations =  2.0

     negative rho (up, down):  3.483E-02 0.000E+00

     total cpu time spent up to now is     1883.8 secs

     total energy              =   -5386.59009104 Ry
     estimated scf accuracy    <       0.00000016 Ry

     iteration # 33     ecut=    60.00 Ry     beta= 0.30
     Davidson diagonalization with overlap
     ethr =  2.89E-11,  avg # of iterations =  2.0

     negative rho (up, down):  3.483E-02 0.000E+00

     total cpu time spent up to now is     1891.1 secs

     total energy              =   -5386.59009104 Ry
     estimated scf accuracy    <       0.00000033 Ry

     iteration # 34     ecut=    60.00 Ry     beta= 0.30
     Davidson diagonalization with overlap
     ethr =  2.89E-11,  avg # of iterations =  1.0

     negative rho (up, down):  3.483E-02 0.000E+00

     total cpu time spent up to now is     1898.0 secs

     total energy              =   -5386.59009105 Ry
     estimated scf accuracy    <       0.00000015 Ry

     iteration # 35     ecut=    60.00 Ry     beta= 0.30
     Davidson diagonalization with overlap
     ethr =  2.67E-11,  avg # of iterations =  2.0

     negative rho (up, down):  3.483E-02 0.000E+00

     total cpu time spent up to now is     1905.2 secs

     total energy              =   -5386.59009104 Ry
     estimated scf accuracy    <       0.00000072 Ry

     iteration # 36     ecut=    60.00 Ry     beta= 0.30
     Davidson diagonalization with overlap
     ethr =  2.67E-11,  avg # of iterations =  2.0

     negative rho (up, down):  3.483E-02 0.000E+00

     total cpu time spent up to now is     1912.4 secs

     total energy              =   -5386.59009104 Ry
     estimated scf accuracy    <       0.00000049 Ry

     iteration # 37     ecut=    60.00 Ry     beta= 0.30
     Davidson diagonalization with overlap
     ethr =  2.67E-11,  avg # of iterations =  1.0

     negative rho (up, down):  3.483E-02 0.000E+00

     total cpu time spent up to now is     1919.3 secs

     total energy              =   -5386.59009105 Ry
     estimated scf accuracy    <       0.00000029 Ry

     iteration # 38     ecut=    60.00 Ry     beta= 0.30
     Davidson diagonalization with overlap
     ethr =  2.67E-11,  avg # of iterations =  1.0

     negative rho (up, down):  3.483E-02 0.000E+00

     total cpu time spent up to now is     1926.2 secs

     total energy              =   -5386.59009106 Ry
     estimated scf accuracy    <       0.00000009 Ry

     iteration # 39     ecut=    60.00 Ry     beta= 0.30
     Davidson diagonalization with overlap
     ethr =  1.54E-11,  avg # of iterations =  1.0

     negative rho (up, down):  3.483E-02 0.000E+00

     total cpu time spent up to now is     1932.9 secs

     total energy              =   -5386.59009106 Ry
     estimated scf accuracy    <       0.00000007 Ry

     iteration # 40     ecut=    60.00 Ry     beta= 0.30
     Davidson diagonalization with overlap
     ethr =  1.30E-11,  avg # of iterations =  1.0

     negative rho (up, down):  3.483E-02 0.000E+00

     total cpu time spent up to now is     1939.8 secs

     total energy              =   -5386.59009106 Ry
     estimated scf accuracy    <       0.00000007 Ry

     iteration # 41     ecut=    60.00 Ry     beta= 0.30
     Davidson diagonalization with overlap
     ethr =  1.21E-11,  avg # of iterations =  2.0

     negative rho (up, down):  3.483E-02 0.000E+00

     total cpu time spent up to now is     1947.0 secs

     total energy              =   -5386.59009106 Ry
     estimated scf accuracy    <       0.00000011 Ry

     iteration # 42     ecut=    60.00 Ry     beta= 0.30
     Davidson diagonalization with overlap
     ethr =  1.21E-11,  avg # of iterations =  1.0

     negative rho (up, down):  3.483E-02 0.000E+00

     total cpu time spent up to now is     1953.6 secs

     total energy              =   -5386.59009106 Ry
     estimated scf accuracy    <       0.00000003 Ry

     iteration # 43     ecut=    60.00 Ry     beta= 0.30
     Davidson diagonalization with overlap
     ethr =  4.70E-12,  avg # of iterations =  1.0

     negative rho (up, down):  3.483E-02 0.000E+00

     total cpu time spent up to now is     1960.6 secs

     total energy              =   -5386.59009106 Ry
     estimated scf accuracy    <       0.00000001 Ry

     iteration # 44     ecut=    60.00 Ry     beta= 0.30
     Davidson diagonalization with overlap
     ethr =  1.91E-12,  avg # of iterations =  2.0

     negative rho (up, down):  3.483E-02 0.000E+00

     total cpu time spent up to now is     1968.4 secs

     total energy              =   -5386.59009106 Ry
     estimated scf accuracy    <       0.00000002 Ry

     iteration # 45     ecut=    60.00 Ry     beta= 0.30
     Davidson diagonalization with overlap
     ethr =  1.91E-12,  avg # of iterations =  1.0

     negative rho (up, down):  3.483E-02 0.000E+00

     total cpu time spent up to now is     1975.5 secs

     total energy              =   -5386.59009106 Ry
     estimated scf accuracy    <       0.00000001 Ry

     iteration # 46     ecut=    60.00 Ry     beta= 0.30
     Davidson diagonalization with overlap
     ethr =  1.91E-12,  avg # of iterations =  1.0

     negative rho (up, down):  3.483E-02 0.000E+00

     total cpu time spent up to now is     1982.1 secs

     total energy              =   -5386.59009106 Ry
     estimated scf accuracy    <       0.00000003 Ry

     iteration # 47     ecut=    60.00 Ry     beta= 0.30
     Davidson diagonalization with overlap
     ethr =  1.91E-12,  avg # of iterations =  1.0

     negative rho (up, down):  3.483E-02 0.000E+00

     total cpu time spent up to now is     1989.0 secs

     total energy              =   -5386.59009106 Ry
     estimated scf accuracy    <       0.00000001 Ry

     iteration # 48     ecut=    60.00 Ry     beta= 0.30
     Davidson diagonalization with overlap
     ethr =  1.91E-12,  avg # of iterations =  1.0

     negative rho (up, down):  3.483E-02 0.000E+00

     total cpu time spent up to now is     1995.9 secs

     total energy              =   -5386.59009106 Ry
     estimated scf accuracy    <          6.7E-09 Ry

     iteration # 49     ecut=    60.00 Ry     beta= 0.30
     Davidson diagonalization with overlap
     ethr =  1.19E-12,  avg # of iterations =  1.0

     negative rho (up, down):  3.483E-02 0.000E+00

     total cpu time spent up to now is     2002.5 secs

     total energy              =   -5386.59009106 Ry
     estimated scf accuracy    <          1.9E-09 Ry

     iteration # 50     ecut=    60.00 Ry     beta= 0.30
     Davidson diagonalization with overlap
     ethr =  3.44E-13,  avg # of iterations =  1.0

     negative rho (up, down):  3.483E-02 0.000E+00

     total cpu time spent up to now is     2009.4 secs

     End of self-consistent calculation

          k = 0.0000 0.0000 0.0000 ( 46961 PWs)   bands (ev):

   -69.5460 -69.5312 -69.5164 -69.5111 -69.4760 -69.4484 -69.4440 -69.4351
   -69.4168 -69.4044 -69.2437 -62.0565 -62.0449 -62.0371 -61.9999 -61.9153
   -61.9099 -61.9044 -61.8957 -61.8300 -61.7519 -54.3243 -54.2710 -54.2703
   -54.1171 -53.9632 -53.9292 -53.8966 -53.8889 -53.8753 -53.8697 -53.6342
   -41.0225 -40.9676 -40.9605 -40.9358 -40.9344 -40.9121 -40.9089 -40.8937
   -40.8900 -40.8836 -40.8739 -40.8678 -40.8558 -40.8490 -40.8398 -40.8288
   -40.8186 -40.8051 -40.8047 -40.7964 -40.7956 -40.7798 -40.7711 -40.7593
   -40.7429 -40.7314 -40.7290 -40.7156 -40.6983 -40.6820 -40.6672 -40.6044
   -40.4638 -36.0469 -36.0064 -35.9764 -35.9662 -35.9551 -35.9357 -35.9164
   -35.8939 -35.8665 -35.8606 -35.8358 -35.8321 -35.8297 -35.8263 -35.8033
   -35.7892 -35.7832 -35.7802 -35.7757 -35.7646 -35.7503 -35.7465 -35.7158
   -35.7133 -35.7031 -35.6909 -35.6870 -35.6498 -35.5896 -35.4982 -30.7719
   -30.6960 -30.6796 -30.5769 -30.5449 -30.5300 -30.5261 -30.5234 -30.5197
   -30.4858 -30.4348 -30.4255 -30.3883 -30.3669 -30.3489 -30.3348 -30.3138
   -30.3108 -30.3042 -30.2783 -30.2679 -30.2400 -30.2241 -30.1964 -30.1706
   -30.1471 -30.1340 -30.1175 -30.0929 -30.0775 -30.0017 -29.9603 -29.9051
   -21.6092 -16.3331 -10.7250  -9.6503  -9.2535  -9.1764  -9.0716  -8.9312
    -8.5735  -8.3826  -8.3288  -8.2811  -8.2196  -8.1404  -8.0675  -7.9500
    -7.9166  -7.7828  -7.7006  -7.6304  -7.5443  -7.4947  -7.4407  -7.4144
    -7.3897  -7.3591  -7.2431  -7.2111  -7.1108  -6.9930  -6.8568  -6.7829
    -6.7458  -6.6505  -6.4639  -4.2830  -4.2482  -4.0669  -3.9198  -3.8763
    -3.8114  -3.6821  -3.2123  -2.9539  -2.8273  -2.7250  -2.6793  -2.6245
    -2.5809  -2.4686  -2.4520  -2.3862  -2.3363  -2.3285  -2.1638  -2.0778
    -2.0340  -1.9470  -1.8034  -1.7945  -1.7664  -1.7309  -1.6030  -1.5377
    -1.5010  -1.4456  -1.4296  -1.3760  -1.3514  -1.3405  -1.3263  -1.3105
    -1.2944  -1.2833  -1.2502  -1.2403  -1.2039  -1.1745  -1.1485  -1.0591
    -1.0472  -1.0041  -0.9667  -0.9472  -0.9263  -0.8647  -0.8499  -0.8107
    -0.7633  -0.7387  -0.7216  -0.6845  -0.6629  -0.6486  -0.6301  -0.6067
    -0.5934  -0.5658  -0.5504  -0.5373  -0.5147  -0.4748  -0.3361  -0.3156
    -0.2975  -0.2677  -0.2113  -0.1627  -0.1256  -0.0847  -0.0149   0.0240
     0.0617   0.0991   0.1380   0.1694   0.2496   0.2850   0.3042   0.5001
     0.5219   0.6395   0.6846   0.7674   0.8160   0.9406   0.9934   1.0278
     1.1135   1.1634   1.2543   1.3192   1.3340   1.4429   1.4677   1.5257
     1.5415   1.7716   1.8158   1.8473   1.9031   1.9572   2.1234   2.1609
     2.2626   2.5903   2.6597   2.6823   2.7591   2.8250   2.9135   2.9705
     2.9936   3.0351   3.1011   3.1248   3.1651   3.1917   3.2233   3.2721
     3.2816   3.3117   3.3267   3.3639   3.4022   3.4140   3.4313   3.4686
     3.4962   3.5166   3.5671   3.5949   3.6508   3.6946   3.7084   3.7481
     3.7783   3.8308   3.8788   3.8881   3.9532   3.9622   4.0180   4.0258
     4.0673   4.0811   4.1352   4.1491   4.1823   4.2097   4.2373   4.2537
     4.2858   4.3154   4.3731   4.4153   4.4528   4.4810   4.5166   4.5601
     4.5943   4.6109   4.6561   4.7181   4.7481   4.7951   4.8140   4.8652
     4.8875

     the Fermi energy is     2.9952 ev

!    total energy              =   -5386.59009106 Ry
     estimated scf accuracy    <          1.4E-09 Ry
     smearing contrib. (-TS)   =      -0.02912092 Ry
     internal energy E=F+TS    =   -5386.56097014 Ry

     The total energy is F=E-TS. E is the sum of the following terms:
     one-electron contribution =  -56006.60220873 Ry
     hartree contribution      =   28036.74184194 Ry
     xc contribution           =    -807.39028984 Ry
     ewald contribution        =   23613.51901496 Ry
     one-center paw contrib.   =    -222.82932847 Ry

     convergence has been achieved in  50 iterations

     negative rho (up, down):  3.483E-02 0.000E+00

     Forces acting on atoms (cartesian axes, Ry/au):

     atom    1 type  1   force =     0.00221017    0.00092255   -0.00737151
     atom    2 type  1   force =    -0.00265501   -0.00795092    0.00509656
     atom    3 type  1   force =    -0.01078227    0.03412353   -0.01160973
     atom    4 type  1   force =     0.00039765   -0.01558655    0.02866324
     atom    5 type  1   force =    -0.00293146    0.01093862   -0.00140952
     atom    6 type  1   force =     0.00828599   -0.00205135    0.02812396
     atom    7 type  1   force =     0.00043374   -0.02217168   -0.01572282
     atom    8 type  1   force =     0.01429790    0.02134411    0.00777946
     atom    9 type  1   force =    -0.01408911   -0.00875312   -0.03614854
     atom   10 type  1   force =     0.00110947   -0.00560280    0.00277918
     atom   11 type  1   force =     0.00090149   -0.00665780    0.01953767
     atom   12 type  2   force =    -0.00327613   -0.01172835   -0.01724403
     atom   13 type  2   force =     0.00910421   -0.00901874   -0.00345775
     atom   14 type  2   force =     0.02398844   -0.00750876    0.01899824
     atom   15 type  2   force =    -0.01159873   -0.00015738    0.11475696
     atom   16 type  2   force =     0.00503236    0.00085808    0.09569429
     atom   17 type  2   force =    -0.04608260   -0.02526933   -0.02828722
     atom   18 type  2   force =     0.01010909    0.01732343   -0.03470305
     atom   19 type  2   force =    -0.00737803    0.01413719   -0.03617227
     atom   20 type  2   force =    -0.00122542   -0.01088162    0.00392654
     atom   21 type  2   force =     0.00851319    0.01572270   -0.00474580
     atom   22 type  3   force =    -0.00420370    0.00048540    0.00925849
     atom   23 type  3   force =    -0.02355432   -0.01134782   -0.00848980
     atom   24 type  3   force =     0.01805809    0.01400872   -0.01608007
     atom   25 type  3   force =     0.01678726   -0.01285559    0.06577249
     atom   26 type  3   force =    -0.00427532    0.01151193    0.12529415
     atom   27 type  3   force =     0.03956505   -0.00561218    0.00180528
     atom   28 type  3   force =    -0.00681502    0.00145162    0.04241669
     atom   29 type  3   force =     0.01262411   -0.00840100    0.01755722
     atom   30 type  3   force =    -0.00994680   -0.00474251    0.01452092
     atom   31 type  3   force =     0.00162255   -0.00139543   -0.00913581
     atom   32 type  3   force =    -0.00555501    0.00016630   -0.00761041
     atom   33 type  4   force =    -0.00019211   -0.00740201   -0.03379542
     atom   34 type  4   force =     0.00972711    0.01255488   -0.00290753
     atom   35 type  4   force =    -0.00211825   -0.01815389   -0.02342661
     atom   36 type  4   force =     0.00094184    0.01035862   -0.03648605
     atom   37 type  4   force =     0.00205041    0.00166860    0.02510792
     atom   38 type  4   force =     0.00436090   -0.00954611    0.02423587
     atom   39 type  4   force =     0.00524735   -0.00361585    0.02149685
     atom   40 type  4   force =     0.00039398   -0.00221775    0.00832095
     atom   41 type  4   force =     0.00126551    0.00571286    0.00069985
     atom   42 type  4   force =     0.00199179    0.00660162    0.00583799
     atom   43 type  4   force =    -0.00111493    0.00371599    0.00012730
     atom   44 type  4   force =    -0.00467026    0.00740903    0.00450050
     atom   45 type  4   force =     0.00644703    0.00810954   -0.04205936
     atom   46 type  4   force =     0.00232575   -0.00012824   -0.04384677
     atom   47 type  4   force =    -0.00795117    0.00065820   -0.03099914
     atom   48 type  4   force =    -0.01285950   -0.01079012   -0.02337479
     atom   49 type  4   force =    -0.00608513   -0.00472955    0.00586431
     atom   50 type  4   force =     0.00260255    0.01535645    0.00557903
     atom   51 type  4   force =    -0.00301628    0.00777905   -0.00235969
     atom   52 type  4   force =    -0.00245460    0.00591285   -0.00454377
     atom   53 type  4   force =    -0.00247404    0.00313995   -0.03343040
     atom   54 type  4   force =    -0.00668911    0.00466011   -0.04721544
     atom   55 type  4   force =    -0.00073408    0.00738568   -0.03033412
     atom   56 type  4   force =    -0.00197876   -0.00684443   -0.03188964
     atom   57 type  4   force =    -0.01588804    0.00812250   -0.02961653
     atom   58 type  4   force =    -0.00948850   -0.00587291   -0.03908329
     atom   59 type  4   force =     0.01440691    0.01126635   -0.03247876
     atom   60 type  4   force =     0.00210585   -0.01041581   -0.02249771
     atom   61 type  4   force =     0.00623157    0.00114869    0.00802426
     atom   62 type  4   force =     0.00270713   -0.00412801    0.02558596
     atom   63 type  4   force =    -0.00094679   -0.00119404   -0.00030919
     atom   64 type  4   force =    -0.00125918   -0.00509039    0.01705389
     atom   65 type  4   force =     0.00012837   -0.00476001    0.03484199
     atom   66 type  5   force =    -0.00192715    0.00717705   -0.04390420
     atom   67 type  5   force =     0.00285606   -0.00150173   -0.00118265
     atom   68 type  6   force =    -0.00261407    0.00235155    0.00467139

     Total force =     0.078239     Total SCF correction =     0.000057
     Energy error            =      4.6E-03 Ry
     Gradient error          =      4.4E-02 Ry/Bohr

     number of scf cycles    =   5
     number of bfgs steps    =   4

     energy             old  =   -5386.5855106163 Ry
     energy             new  =   -5386.5900910611 Ry

     CASE: energy            _new < energy            _old

     new trust radius        =       0.0604792340 bohr
     new conv_thr            =       0.0000000044 Ry


ATOMIC_POSITIONS (angstrom)
Ti               0.0245167423        0.0399111092       16.1791046128
Ti               0.0291331002        8.3621570543       11.5803477355    0   0   0
Ti               2.0975368417        4.1651924041       13.6995846818    0   0   0
Ti               8.3795041056        2.0957563981        9.4724378689    0   0   0
Ti               8.3750099733        6.2687152092        9.4933225157    0   0   0
Ti               4.2170671874        6.2898439467        9.4911460380    0   0   0
Ti               8.3706959315        2.0992468883       13.7196199333    0   0   0
Ti               8.3814371399        6.2587905921       13.6914936631    0   0   0
Ti               4.2074509867        6.2621252961       13.6953624844    0   0   0
Ti               2.1263910809        6.2490472123       15.8057951564
Ti               6.3021880425        6.2833902963       15.7230362768
V                8.3841977062        4.0860761102       15.7379282629
V                4.2295990014        4.1191217154       15.6513799624
V                4.1453105473        4.2119457891       11.5975026988    0   0   0
V                2.1879867013        0.0520231596        9.5054883674    0   0   0
V                2.1522427348        4.1319303501        9.4904675789    0   0   0
V                2.0919720210       -0.0034525136       13.6809547049    0   0   0
V                6.2957223951        4.1813414611       13.7896152224    0   0   0
V                4.2104512702        2.0785028673       13.6089365586    0   0   0
V                2.1048639148        6.2714192178       11.5723879270    0   0   0
V                6.3158808164        6.1438819511       11.5700667150    0   0   0
Cr               4.2304310079       -0.0431416021       15.5284235832
Cr               0.1179128009        4.1786640750       11.5195623927    0   0   0
Cr               4.1681598842        8.2577799257       11.6615352591    0   0   0
Cr               6.1999882077        0.1106418811        9.6948923906    0   0   0
Cr               6.2007452456        4.0563627707        9.3394942948    0   0   0
Cr               6.3039559766        8.3200573949       13.5345114413    0   0   0
Cr               4.2149984025        2.0754774019        9.7444374941    0   0   0
Cr               2.2757657308        2.0811231056       15.5503406129
Cr               6.1641044276        1.9972574856       15.5332182401
Cr               2.0054620409        2.1149661174       11.6192682974    0   0   0
Cr               6.3992485267        2.2488278238       11.6549867199    0   0   0
C                8.3671464633        0.0123762133        9.4921945368    0   0   0
C                8.3685510870        4.1683341954        9.4949958325    0   0   0
C                4.2233794382        0.0660683478        9.5137772640    0   0   0
C                4.2071394793        4.1170355077        9.4900603783    0   0   0
C                8.3753352139       -0.0047460034       13.6879749419    0   0   0
C                8.3555577743        4.1752016178       13.6998947017    0   0   0
C                4.2131653834        0.0054873094       13.6688163572    0   0   0
C                4.2220181648        4.1373219388       13.6924183861    0   0   0
C                2.1864853939        0.0942827422       15.8530392321
C                2.1022832044        4.0875380359       15.9352242447
C                6.2236608741        0.0822192866       15.8860358802
C                6.2889211877        4.1250122438       15.8818585005
C                2.1521326937        0.0175132539       11.5903255372    0   0   0
C                2.1078429860        4.1683083653       11.5671868517    0   0   0
C                6.2417937451        0.0188099573       11.6002801854    0   0   0
C                6.3283074126        4.1569384024       11.5682471185    0   0   0
C                8.3447788095        2.1561725256       15.7540548994
C                8.3757187223        6.2845115495       15.7335681982
C                4.2039741357        2.0394228320       15.7850057028
C                4.2217077902        6.3354483865       15.8333462032
C                0.0147673152        2.1438801594       11.5939557114    0   0   0
C                0.0200697416        6.2277703895       11.5821679336    0   0   0
C                4.2182428542        2.0594943016       11.6100232202    0   0   0
C                4.2117703951        6.2583221129       11.5919858628    0   0   0
C                2.1713130363        2.0860319016        9.4919958919    0   0   0
C                2.1164500536        6.2753611976        9.5156635851    0   0   0
C                6.2203151227        2.0809934926        9.4961719556    0   0   0
C                6.2861737462        6.2618311600        9.5257047400    0   0   0
C                2.1349207790        2.0551228178       13.6855329086    0   0   0
C                2.1043015435        6.2915359703       13.6724452320    0   0   0
C                6.2612712230        2.0678980813       13.6766563617    0   0   0
C                6.2981398968        6.2588382292       13.6653030130    0   0   0
C                2.1661517035        6.0749749850       18.0384901597
O                2.2142161033        5.9136105076       19.1791470254
O                8.3523121889        0.0584489347       18.0278294345
H                7.6403149830        0.4543985290       18.5596166726



     Writing config-only to output data dir ./tmp/hec3_CrTiV_f100_COOH_ads.save/ :
     XML data file
     NEW-OLD atomic charge density approx. for the potential

     Check: negative core charge=   -0.000005

     negative rho (up, down):  3.530E-02 0.000E+00

     total cpu time spent up to now is     2021.2 secs

     Self-consistent Calculation

     iteration #  1     ecut=    60.00 Ry     beta= 0.30
     Davidson diagonalization with overlap
     ethr =  1.00E-06,  avg # of iterations =  7.0

     negative rho (up, down):  3.530E-02 0.000E+00

     total cpu time spent up to now is     2032.5 secs

     total energy              =   -5386.58471674 Ry
     estimated scf accuracy    <       0.02162578 Ry

     iteration #  2     ecut=    60.00 Ry     beta= 0.30
     Davidson diagonalization with overlap
     c_bands:  2 eigenvalues not converged
     ethr =  3.85E-06,  avg # of iterations = 20.0

     negative rho (up, down):  3.528E-02 0.000E+00

     total cpu time spent up to now is     2046.9 secs

     total energy              =   -5386.53879764 Ry
     estimated scf accuracy    <       2.75786995 Ry

     iteration #  3     ecut=    60.00 Ry     beta= 0.30
     Davidson diagonalization with overlap
     c_bands:  3 eigenvalues not converged
     ethr =  3.85E-06,  avg # of iterations = 20.0

     negative rho (up, down):  3.525E-02 0.000E+00

     total cpu time spent up to now is     2060.7 secs

     total energy              =   -5386.58484537 Ry
     estimated scf accuracy    <       0.31855455 Ry

     iteration #  4     ecut=    60.00 Ry     beta= 0.30
     Davidson diagonalization with overlap
     ethr =  3.85E-06,  avg # of iterations = 14.0

     negative rho (up, down):  3.528E-02 0.000E+00

     total cpu time spent up to now is     2071.4 secs

     total energy              =   -5386.59108916 Ry
     estimated scf accuracy    <       0.06316813 Ry

     iteration #  5     ecut=    60.00 Ry     beta= 0.30
     Davidson diagonalization with overlap
     ethr =  3.85E-06,  avg # of iterations =  2.0

     negative rho (up, down):  3.528E-02 0.000E+00

     total cpu time spent up to now is     2078.8 secs

     total energy              =   -5386.59251011 Ry
     estimated scf accuracy    <       0.01521824 Ry

     iteration #  6     ecut=    60.00 Ry     beta= 0.30
     Davidson diagonalization with overlap
     ethr =  2.71E-06,  avg # of iterations =  2.0

     negative rho (up, down):  3.529E-02 0.000E+00

     total cpu time spent up to now is     2086.2 secs

     total energy              =   -5386.59290146 Ry
     estimated scf accuracy    <       0.01092707 Ry

     iteration #  7     ecut=    60.00 Ry     beta= 0.30
     Davidson diagonalization with overlap
     ethr =  1.95E-06,  avg # of iterations =  2.0

     negative rho (up, down):  3.529E-02 0.000E+00

     total cpu time spent up to now is     2093.7 secs

     total energy              =   -5386.59315686 Ry
     estimated scf accuracy    <       0.00420833 Ry

     iteration #  8     ecut=    60.00 Ry     beta= 0.30
     Davidson diagonalization with overlap
     ethr =  7.50E-07,  avg # of iterations =  2.0

     negative rho (up, down):  3.529E-02 0.000E+00

     total cpu time spent up to now is     2101.2 secs

     total energy              =   -5386.59326836 Ry
     estimated scf accuracy    <       0.00247362 Ry

     iteration #  9     ecut=    60.00 Ry     beta= 0.30
     Davidson diagonalization with overlap
     ethr =  4.41E-07,  avg # of iterations =  2.0

     negative rho (up, down):  3.529E-02 0.000E+00

     total cpu time spent up to now is     2108.6 secs

     total energy              =   -5386.59329180 Ry
     estimated scf accuracy    <       0.00316892 Ry

     iteration # 10     ecut=    60.00 Ry     beta= 0.30
     Davidson diagonalization with overlap
     ethr =  4.41E-07,  avg # of iterations =  1.0

     negative rho (up, down):  3.529E-02 0.000E+00

     total cpu time spent up to now is     2115.6 secs

     total energy              =   -5386.59338123 Ry
     estimated scf accuracy    <       0.00043537 Ry

     iteration # 11     ecut=    60.00 Ry     beta= 0.30
     Davidson diagonalization with overlap
     ethr =  7.76E-08,  avg # of iterations =  5.0

     negative rho (up, down):  3.529E-02 0.000E+00

     total cpu time spent up to now is     2123.8 secs

     total energy              =   -5386.59337214 Ry
     estimated scf accuracy    <       0.00102246 Ry

     iteration # 12     ecut=    60.00 Ry     beta= 0.30
     Davidson diagonalization with overlap
     ethr =  7.76E-08,  avg # of iterations =  5.0

     negative rho (up, down):  3.529E-02 0.000E+00

     total cpu time spent up to now is     2132.1 secs

     total energy              =   -5386.59331993 Ry
     estimated scf accuracy    <       0.00435175 Ry

     iteration # 13     ecut=    60.00 Ry     beta= 0.30
     Davidson diagonalization with overlap
     ethr =  7.76E-08,  avg # of iterations =  5.0

     negative rho (up, down):  3.529E-02 0.000E+00

     total cpu time spent up to now is     2139.8 secs

     total energy              =   -5386.59338299 Ry
     estimated scf accuracy    <       0.00177405 Ry

     iteration # 14     ecut=    60.00 Ry     beta= 0.30
     Davidson diagonalization with overlap
     ethr =  7.76E-08,  avg # of iterations =  2.0

     negative rho (up, down):  3.530E-02 0.000E+00

     total cpu time spent up to now is     2146.9 secs

     total energy              =   -5386.59341545 Ry
     estimated scf accuracy    <       0.00040734 Ry

     iteration # 15     ecut=    60.00 Ry     beta= 0.30
     Davidson diagonalization with overlap
     ethr =  7.26E-08,  avg # of iterations =  1.0

     negative rho (up, down):  3.530E-02 0.000E+00

     total cpu time spent up to now is     2153.6 secs

     total energy              =   -5386.59342667 Ry
     estimated scf accuracy    <       0.00003176 Ry

     iteration # 16     ecut=    60.00 Ry     beta= 0.30
     Davidson diagonalization with overlap
     ethr =  5.66E-09,  avg # of iterations =  6.0

     negative rho (up, down):  3.529E-02 0.000E+00

     total cpu time spent up to now is     2162.3 secs

     total energy              =   -5386.59342468 Ry
     estimated scf accuracy    <       0.00016126 Ry

     iteration # 17     ecut=    60.00 Ry     beta= 0.30
     Davidson diagonalization with overlap
     ethr =  5.66E-09,  avg # of iterations =  5.0

     negative rho (up, down):  3.529E-02 0.000E+00

     total cpu time spent up to now is     2170.4 secs

     total energy              =   -5386.59342775 Ry
     estimated scf accuracy    <       0.00007856 Ry

     iteration # 18     ecut=    60.00 Ry     beta= 0.30
     Davidson diagonalization with overlap
     ethr =  5.66E-09,  avg # of iterations =  2.0

     negative rho (up, down):  3.529E-02 0.000E+00

     total cpu time spent up to now is     2177.9 secs

     total energy              =   -5386.59342961 Ry
     estimated scf accuracy    <       0.00002058 Ry

     iteration # 19     ecut=    60.00 Ry     beta= 0.30
     Davidson diagonalization with overlap
     ethr =  3.67E-09,  avg # of iterations =  2.0

     negative rho (up, down):  3.530E-02 0.000E+00

     total cpu time spent up to now is     2185.5 secs

     total energy              =   -5386.59342949 Ry
     estimated scf accuracy    <       0.00003306 Ry

     iteration # 20     ecut=    60.00 Ry     beta= 0.30
     Davidson diagonalization with overlap
     ethr =  3.67E-09,  avg # of iterations =  1.0

     negative rho (up, down):  3.530E-02 0.000E+00

     total cpu time spent up to now is     2192.1 secs

     total energy              =   -5386.59343019 Ry
     estimated scf accuracy    <       0.00001571 Ry

     iteration # 21     ecut=    60.00 Ry     beta= 0.30
     Davidson diagonalization with overlap
     ethr =  2.80E-09,  avg # of iterations =  2.0

     negative rho (up, down):  3.530E-02 0.000E+00

     total cpu time spent up to now is     2199.3 secs

     total energy              =   -5386.59343053 Ry
     estimated scf accuracy    <       0.00001274 Ry

     iteration # 22     ecut=    60.00 Ry     beta= 0.30
     Davidson diagonalization with overlap
     ethr =  2.27E-09,  avg # of iterations =  1.0

     negative rho (up, down):  3.530E-02 0.000E+00

     total cpu time spent up to now is     2206.0 secs

     total energy              =   -5386.59343100 Ry
     estimated scf accuracy    <       0.00000365 Ry

     iteration # 23     ecut=    60.00 Ry     beta= 0.30
     Davidson diagonalization with overlap
     ethr =  6.51E-10,  avg # of iterations =  2.0

     negative rho (up, down):  3.530E-02 0.000E+00

     total cpu time spent up to now is     2213.6 secs

     total energy              =   -5386.59343098 Ry
     estimated scf accuracy    <       0.00000461 Ry

     iteration # 24     ecut=    60.00 Ry     beta= 0.30
     Davidson diagonalization with overlap
     ethr =  6.51E-10,  avg # of iterations =  2.0

     negative rho (up, down):  3.529E-02 0.000E+00

     total cpu time spent up to now is     2221.1 secs

     total energy              =   -5386.59343058 Ry
     estimated scf accuracy    <       0.00003023 Ry

     iteration # 25     ecut=    60.00 Ry     beta= 0.30
     Davidson diagonalization with overlap
     ethr =  6.51E-10,  avg # of iterations =  2.0

     negative rho (up, down):  3.530E-02 0.000E+00

     total cpu time spent up to now is     2228.4 secs

     total energy              =   -5386.59343101 Ry
     estimated scf accuracy    <       0.00000600 Ry

     iteration # 26     ecut=    60.00 Ry     beta= 0.30
     Davidson diagonalization with overlap
     ethr =  6.51E-10,  avg # of iterations =  1.0

     negative rho (up, down):  3.529E-02 0.000E+00

     total cpu time spent up to now is     2235.3 secs

     total energy              =   -5386.59343115 Ry
     estimated scf accuracy    <       0.00000262 Ry

     iteration # 27     ecut=    60.00 Ry     beta= 0.30
     Davidson diagonalization with overlap
     ethr =  4.66E-10,  avg # of iterations =  1.0

     negative rho (up, down):  3.530E-02 0.000E+00

     total cpu time spent up to now is     2241.9 secs

     total energy              =   -5386.59343120 Ry
     estimated scf accuracy    <       0.00000203 Ry

     iteration # 28     ecut=    60.00 Ry     beta= 0.30
     Davidson diagonalization with overlap
     ethr =  3.61E-10,  avg # of iterations =  1.0

     negative rho (up, down):  3.530E-02 0.000E+00

     total cpu time spent up to now is     2248.6 secs

     total energy              =   -5386.59343124 Ry
     estimated scf accuracy    <       0.00000068 Ry

     iteration # 29     ecut=    60.00 Ry     beta= 0.30
     Davidson diagonalization with overlap
     ethr =  1.21E-10,  avg # of iterations =  2.0

     negative rho (up, down):  3.530E-02 0.000E+00

     total cpu time spent up to now is     2255.9 secs

     total energy              =   -5386.59343123 Ry
     estimated scf accuracy    <       0.00000121 Ry

     iteration # 30     ecut=    60.00 Ry     beta= 0.30
     Davidson diagonalization with overlap
     ethr =  1.21E-10,  avg # of iterations =  2.0

     negative rho (up, down):  3.530E-02 0.000E+00

     total cpu time spent up to now is     2263.0 secs

     total energy              =   -5386.59343124 Ry
     estimated scf accuracy    <       0.00000123 Ry

     iteration # 31     ecut=    60.00 Ry     beta= 0.30
     Davidson diagonalization with overlap
     ethr =  1.21E-10,  avg # of iterations =  1.0

     negative rho (up, down):  3.530E-02 0.000E+00

     total cpu time spent up to now is     2269.9 secs

     total energy              =   -5386.59343127 Ry
     estimated scf accuracy    <       0.00000026 Ry

     iteration # 32     ecut=    60.00 Ry     beta= 0.30
     Davidson diagonalization with overlap
     ethr =  4.60E-11,  avg # of iterations =  1.0

     negative rho (up, down):  3.530E-02 0.000E+00

     total cpu time spent up to now is     2276.3 secs

     total energy              =   -5386.59343128 Ry
     estimated scf accuracy    <       0.00000011 Ry

     iteration # 33     ecut=    60.00 Ry     beta= 0.30
     Davidson diagonalization with overlap
     ethr =  1.87E-11,  avg # of iterations =  2.0

     negative rho (up, down):  3.530E-02 0.000E+00

     total cpu time spent up to now is     2283.2 secs

     total energy              =   -5386.59343128 Ry
     estimated scf accuracy    <       0.00000016 Ry

     iteration # 34     ecut=    60.00 Ry     beta= 0.30
     Davidson diagonalization with overlap
     ethr =  1.87E-11,  avg # of iterations =  2.0

     negative rho (up, down):  3.530E-02 0.000E+00

     total cpu time spent up to now is     2290.4 secs

     total energy              =   -5386.59343128 Ry
     estimated scf accuracy    <       0.00000055 Ry

     iteration # 35     ecut=    60.00 Ry     beta= 0.30
     Davidson diagonalization with overlap
     ethr =  1.87E-11,  avg # of iterations =  2.0

     negative rho (up, down):  3.530E-02 0.000E+00

     total cpu time spent up to now is     2298.0 secs

     total energy              =   -5386.59343128 Ry
     estimated scf accuracy    <       0.00000022 Ry

     iteration # 36     ecut=    60.00 Ry     beta= 0.30
     Davidson diagonalization with overlap
     ethr =  1.87E-11,  avg # of iterations =  1.0

     negative rho (up, down):  3.529E-02 0.000E+00

     total cpu time spent up to now is     2304.4 secs

     total energy              =   -5386.59343129 Ry
     estimated scf accuracy    <       0.00000009 Ry

     iteration # 37     ecut=    60.00 Ry     beta= 0.30
     Davidson diagonalization with overlap
     ethr =  1.56E-11,  avg # of iterations =  1.0

     negative rho (up, down):  3.529E-02 0.000E+00

     total cpu time spent up to now is     2311.2 secs

     total energy              =   -5386.59343129 Ry
     estimated scf accuracy    <       0.00000004 Ry

     iteration # 38     ecut=    60.00 Ry     beta= 0.30
     Davidson diagonalization with overlap
     ethr =  8.00E-12,  avg # of iterations =  1.0

     negative rho (up, down):  3.529E-02 0.000E+00

     total cpu time spent up to now is     2317.9 secs

     total energy              =   -5386.59343129 Ry
     estimated scf accuracy    <       0.00000003 Ry

     iteration # 39     ecut=    60.00 Ry     beta= 0.30
     Davidson diagonalization with overlap
     ethr =  5.89E-12,  avg # of iterations =  2.0

     negative rho (up, down):  3.529E-02 0.000E+00

     total cpu time spent up to now is     2324.8 secs

     total energy              =   -5386.59343129 Ry
     estimated scf accuracy    <       0.00000007 Ry

     iteration # 40     ecut=    60.00 Ry     beta= 0.30
     Davidson diagonalization with overlap
     ethr =  5.89E-12,  avg # of iterations =  2.0

     negative rho (up, down):  3.529E-02 0.000E+00

     total cpu time spent up to now is     2332.6 secs

     total energy              =   -5386.59343129 Ry
     estimated scf accuracy    <       0.00000006 Ry

     iteration # 41     ecut=    60.00 Ry     beta= 0.30
     Davidson diagonalization with overlap
     ethr =  5.89E-12,  avg # of iterations =  1.0

     negative rho (up, down):  3.529E-02 0.000E+00

     total cpu time spent up to now is     2339.5 secs

     total energy              =   -5386.59343129 Ry
     estimated scf accuracy    <       0.00000003 Ry

     iteration # 42     ecut=    60.00 Ry     beta= 0.30
     Davidson diagonalization with overlap
     ethr =  5.56E-12,  avg # of iterations =  1.0

     negative rho (up, down):  3.529E-02 0.000E+00

     total cpu time spent up to now is     2346.6 secs

     total energy              =   -5386.59343129 Ry
     estimated scf accuracy    <       0.00000001 Ry

     iteration # 43     ecut=    60.00 Ry     beta= 0.30
     Davidson diagonalization with overlap
     ethr =  1.97E-12,  avg # of iterations =  1.0

     negative rho (up, down):  3.529E-02 0.000E+00

     total cpu time spent up to now is     2353.4 secs

     total energy              =   -5386.59343129 Ry
     estimated scf accuracy    <       0.00000001 Ry

     iteration # 44     ecut=    60.00 Ry     beta= 0.30
     Davidson diagonalization with overlap
     ethr =  1.81E-12,  avg # of iterations =  2.0

     negative rho (up, down):  3.529E-02 0.000E+00

     total cpu time spent up to now is     2360.3 secs

     total energy              =   -5386.59343129 Ry
     estimated scf accuracy    <       0.00000004 Ry

     iteration # 45     ecut=    60.00 Ry     beta= 0.30
     Davidson diagonalization with overlap
     ethr =  1.81E-12,  avg # of iterations =  2.0

     negative rho (up, down):  3.529E-02 0.000E+00

     total cpu time spent up to now is     2367.4 secs

     total energy              =   -5386.59343129 Ry
     estimated scf accuracy    <       0.00000002 Ry

     iteration # 46     ecut=    60.00 Ry     beta= 0.30
     Davidson diagonalization with overlap
     ethr =  1.81E-12,  avg # of iterations =  2.0

     negative rho (up, down):  3.529E-02 0.000E+00

     total cpu time spent up to now is     2374.4 secs

     total energy              =   -5386.59343129 Ry
     estimated scf accuracy    <       0.00000002 Ry

     iteration # 47     ecut=    60.00 Ry     beta= 0.30
     Davidson diagonalization with overlap
     ethr =  1.81E-12,  avg # of iterations =  1.0

     negative rho (up, down):  3.529E-02 0.000E+00

     total cpu time spent up to now is     2381.1 secs

     End of self-consistent calculation

          k = 0.0000 0.0000 0.0000 ( 46961 PWs)   bands (ev):

   -69.5515 -69.5309 -69.5185 -69.5137 -69.4750 -69.4468 -69.4389 -69.4347
   -69.4179 -69.4046 -69.2439 -62.0582 -62.0471 -62.0365 -61.9987 -61.9151
   -61.9106 -61.8998 -61.8976 -61.8249 -61.7548 -54.3117 -54.2710 -54.2698
   -54.1136 -53.9619 -53.9322 -53.9008 -53.8934 -53.8863 -53.8741 -53.6201
   -41.0270 -40.9699 -40.9619 -40.9369 -40.9350 -40.9152 -40.9100 -40.8957
   -40.8853 -40.8811 -40.8728 -40.8645 -40.8561 -40.8522 -40.8413 -40.8285
   -40.8208 -40.8072 -40.8053 -40.7993 -40.7971 -40.7786 -40.7738 -40.7571
   -40.7433 -40.7359 -40.7288 -40.7075 -40.7038 -40.6819 -40.6603 -40.6046
   -40.4648 -36.0514 -36.0065 -35.9768 -35.9647 -35.9544 -35.9380 -35.9181
   -35.8934 -35.8671 -35.8617 -35.8360 -35.8313 -35.8294 -35.8271 -35.8024
   -35.7905 -35.7839 -35.7804 -35.7749 -35.7652 -35.7494 -35.7443 -35.7206
   -35.7124 -35.6965 -35.6914 -35.6868 -35.6465 -35.5853 -35.4999 -30.7522
   -30.6946 -30.6805 -30.5670 -30.5439 -30.5307 -30.5236 -30.5223 -30.5191
   -30.4778 -30.4352 -30.4264 -30.3856 -30.3737 -30.3479 -30.3399 -30.3135
   -30.3103 -30.3065 -30.2853 -30.2708 -30.2466 -30.2262 -30.1959 -30.1767
   -30.1561 -30.1410 -30.1208 -30.1009 -30.0798 -29.9925 -29.9495 -29.8991
   -21.6008 -16.2426 -10.7259  -9.6532  -9.2526  -9.1750  -9.0739  -8.9338
    -8.5787  -8.3798  -8.3324  -8.2789  -8.2208  -8.1405  -8.0725  -7.9499
    -7.9197  -7.7874  -7.7007  -7.6318  -7.5448  -7.4990  -7.4417  -7.4199
    -7.3920  -7.3624  -7.2462  -7.2198  -7.1245  -6.9882  -6.8575  -6.7836
    -6.7465  -6.6466  -6.4710  -4.2660  -4.2418  -4.0157  -3.9207  -3.8751
    -3.8088  -3.6767  -3.2175  -2.9521  -2.8283  -2.7370  -2.6846  -2.6224
    -2.5796  -2.4664  -2.4530  -2.3893  -2.3351  -2.3290  -2.1633  -2.0771
    -2.0331  -1.9477  -1.8015  -1.7942  -1.7648  -1.7305  -1.6023  -1.5427
    -1.5012  -1.4503  -1.4306  -1.3776  -1.3525  -1.3419  -1.3284  -1.3116
    -1.2965  -1.2839  -1.2493  -1.2430  -1.2063  -1.1779  -1.1527  -1.0595
    -1.0485  -1.0091  -0.9719  -0.9525  -0.9287  -0.8676  -0.8544  -0.8170
    -0.7696  -0.7455  -0.7144  -0.6825  -0.6590  -0.6475  -0.6275  -0.6088
    -0.5933  -0.5680  -0.5497  -0.5330  -0.5142  -0.4521  -0.3433  -0.3214
    -0.2983  -0.2639  -0.2140  -0.1572  -0.1263  -0.0856  -0.0174   0.0222
     0.0616   0.0977   0.1279   0.1731   0.2666   0.2826   0.3021   0.4971
     0.5224   0.6452   0.6916   0.7629   0.8163   0.9382   0.9848   1.0273
     1.1173   1.1601   1.2531   1.3144   1.3322   1.4414   1.4701   1.5264
     1.5440   1.7701   1.8182   1.8531   1.9028   1.9363   2.1110   2.1480
     2.2350   2.5775   2.6505   2.6690   2.7580   2.8250   2.9166   2.9687
     2.9919   3.0331   3.1005   3.1266   3.1619   3.1902   3.2244   3.2644
     3.2770   3.3113   3.3279   3.3632   3.3999   3.4114   3.4336   3.4676
     3.4970   3.5187   3.5703   3.5920   3.6492   3.6962   3.7143   3.7487
     3.7790   3.8314   3.8785   3.8943   3.9609   3.9648   4.0148   4.0237
     4.0689   4.0814   4.1362   4.1502   4.1849   4.2112   4.2372   4.2582
     4.2841   4.3165   4.3739   4.4143   4.4494   4.4793   4.5204   4.5576
     4.5950   4.6084   4.6552   4.7236   4.7483   4.7999   4.8195   4.8640
     4.8873

     the Fermi energy is     2.9943 ev

!    total energy              =   -5386.59343129 Ry
     estimated scf accuracy    <          3.3E-09 Ry
     smearing contrib. (-TS)   =      -0.02922530 Ry
     internal energy E=F+TS    =   -5386.56420599 Ry

     The total energy is F=E-TS. E is the sum of the following terms:
     one-electron contribution =  -56003.79041449 Ry
     hartree contribution      =   28035.33835185 Ry
     xc contribution           =    -807.40002838 Ry
     ewald contribution        =   23612.11809537 Ry
     one-center paw contrib.   =    -222.83021034 Ry

     convergence has been achieved in  47 iterations

     negative rho (up, down):  3.529E-02 0.000E+00

     Forces acting on atoms (cartesian axes, Ry/au):

     atom    1 type  1   force =     0.00191164    0.00018187   -0.00223254
     atom    2 type  1   force =    -0.00263176   -0.00835804    0.00476309
     atom    3 type  1   force =    -0.01082944    0.03199184   -0.01026077
     atom    4 type  1   force =     0.00042362   -0.01554192    0.02861075
     atom    5 type  1   force =    -0.00288442    0.01100837   -0.00180554
     atom    6 type  1   force =     0.00826694   -0.00177904    0.02804187
     atom    7 type  1   force =     0.00023514   -0.02353266   -0.01646240
     atom    8 type  1   force =     0.01379935    0.02244933    0.00569800
     atom    9 type  1   force =    -0.01354449   -0.00833533   -0.03603660
     atom   10 type  1   force =     0.00037335   -0.00722949    0.00520703
     atom   11 type  1   force =     0.00226299   -0.00624255    0.01604096
     atom   12 type  2   force =    -0.00233277   -0.01318949   -0.01391089
     atom   13 type  2   force =     0.00717694   -0.00806372   -0.00257080
     atom   14 type  2   force =     0.02375171   -0.00749869    0.01891028
     atom   15 type  2   force =    -0.01148027   -0.00006827    0.11463513
     atom   16 type  2   force =     0.00499039    0.00089600    0.09583476
     atom   17 type  2   force =    -0.04518979   -0.02201281   -0.02931157
     atom   18 type  2   force =     0.01018714    0.01636846   -0.03551873
     atom   19 type  2   force =    -0.00752326    0.01295571   -0.03498803
     atom   20 type  2   force =    -0.00133564   -0.01091923    0.00353357
     atom   21 type  2   force =     0.00852207    0.01591242   -0.00481839
     atom   22 type  3   force =    -0.00337002    0.00381487    0.00478176
     atom   23 type  3   force =    -0.02382652   -0.01154232   -0.00897230
     atom   24 type  3   force =     0.01807830    0.01443031   -0.01580018
     atom   25 type  3   force =     0.01661913   -0.01278385    0.06545436
     atom   26 type  3   force =    -0.00421596    0.01134699    0.12521382
     atom   27 type  3   force =     0.03915940   -0.00398662   -0.00014759
     atom   28 type  3   force =    -0.00666742    0.00171350    0.04237019
     atom   29 type  3   force =     0.00572915   -0.00816443    0.00554963
     atom   30 type  3   force =    -0.00300235   -0.00280172    0.00401665
     atom   31 type  3   force =     0.00092906   -0.00143158   -0.00941010
     atom   32 type  3   force =    -0.00502747   -0.00057087   -0.00802175
     atom   33 type  4   force =    -0.00021338   -0.00751641   -0.03348399
     atom   34 type  4   force =     0.00971352    0.01262001   -0.00287114
     atom   35 type  4   force =    -0.00211017   -0.01831011   -0.02351166
     atom   36 type  4   force =     0.00088018    0.01019555   -0.03636109
     atom   37 type  4   force =     0.00228659    0.00240268    0.02429636
     atom   38 type  4   force =     0.00444953   -0.01106193    0.02278051
     atom   39 type  4   force =     0.00581420   -0.00553668    0.02305660
     atom   40 type  4   force =     0.00121275   -0.00252519    0.00733344
     atom   41 type  4   force =     0.00104051    0.00386867    0.00315728
     atom   42 type  4   force =     0.00221032    0.00685721    0.00454886
     atom   43 type  4   force =    -0.00317346    0.00250705    0.00038192
     atom   44 type  4   force =    -0.00420579    0.00828181    0.00578417
     atom   45 type  4   force =     0.00617868    0.00777238   -0.04176241
     atom   46 type  4   force =     0.00233609   -0.00004989   -0.04340808
     atom   47 type  4   force =    -0.00766228    0.00033240   -0.02995585
     atom   48 type  4   force =    -0.01272172   -0.01028562   -0.02295232
     atom   49 type  4   force =    -0.00652820    0.00170878    0.01309493
     atom   50 type  4   force =     0.00062922    0.01285713    0.01408725
     atom   51 type  4   force =    -0.00182031    0.00738969    0.00085277
     atom   52 type  4   force =    -0.00210561    0.00597619   -0.00258284
     atom   53 type  4   force =    -0.00238471    0.00330699   -0.03419146
     atom   54 type  4   force =    -0.00658464    0.00439542   -0.04844721
     atom   55 type  4   force =    -0.00106097    0.00728392   -0.03033567
     atom   56 type  4   force =    -0.00203846   -0.00706457   -0.03220364
     atom   57 type  4   force =    -0.01576221    0.00810976   -0.02975898
     atom   58 type  4   force =    -0.00954158   -0.00576452   -0.03914300
     atom   59 type  4   force =     0.01431876    0.01123278   -0.03260458
     atom   60 type  4   force =     0.00211002   -0.01033515   -0.02226566
     atom   61 type  4   force =     0.00795031    0.00061759    0.01228012
     atom   62 type  4   force =     0.00292537   -0.00454841    0.02355644
     atom   63 type  4   force =    -0.00258543   -0.00188156    0.00347280
     atom   64 type  4   force =    -0.00102431   -0.00496021    0.01854097
     atom   65 type  4   force =    -0.00013354   -0.00382659    0.03640319
     atom   66 type  5   force =    -0.00177194    0.00651037   -0.04401999
     atom   67 type  5   force =    -0.00586035    0.00325028    0.00082465
     atom   68 type  6   force =     0.00667824   -0.00282689   -0.00298637

     Total force =     0.073820     Total SCF correction =     0.000099
     Energy error            =      3.3E-03 Ry
     Gradient error          =      4.4E-02 Ry/Bohr

     number of scf cycles    =   6
     number of bfgs steps    =   5

     energy             old  =   -5386.5900910611 Ry
     energy             new  =   -5386.5934312913 Ry

     CASE: energy            _new < energy            _old

     new trust radius        =       0.0642585233 bohr
     new conv_thr            =       0.0000000044 Ry


ATOMIC_POSITIONS (angstrom)
Ti               0.0289091767        0.0394390944       16.1677998085
Ti               0.0291331002        8.3621570543       11.5803477355    0   0   0
Ti               2.0975368417        4.1651924041       13.6995846818    0   0   0
Ti               8.3795041056        2.0957563981        9.4724378689    0   0   0
Ti               8.3750099733        6.2687152092        9.4933225157    0   0   0
Ti               4.2170671874        6.2898439467        9.4911460380    0   0   0
Ti               8.3706959315        2.0992468883       13.7196199333    0   0   0
Ti               8.3814371399        6.2587905921       13.6914936631    0   0   0
Ti               4.2074509867        6.2621252961       13.6953624844    0   0   0
Ti               2.1275890690        6.2375681706       15.8082694901
Ti               6.3065556041        6.2717671674       15.7474145090
V                8.3812386780        4.0610561589       15.7164304185
V                4.2448913646        4.1039563825       15.6461953364
V                4.1453105473        4.2119457891       11.5975026988    0   0   0
V                2.1879867013        0.0520231596        9.5054883674    0   0   0
V                2.1522427348        4.1319303501        9.4904675789    0   0   0
V                2.0919720210       -0.0034525136       13.6809547049    0   0   0
V                6.2957223951        4.1813414611       13.7896152224    0   0   0
V                4.2104512702        2.0785028673       13.6089365586    0   0   0
V                2.1048639148        6.2714192178       11.5723879270    0   0   0
V                6.3158808164        6.1438819511       11.5700667150    0   0   0
Cr               4.2255055297       -0.0513753947       15.5401955157
Cr               0.1179128009        4.1786640750       11.5195623927    0   0   0
Cr               4.1681598842        8.2577799257       11.6615352591    0   0   0
Cr               6.1999882077        0.1106418811        9.6948923906    0   0   0
Cr               6.2007452456        4.0563627707        9.3394942948    0   0   0
Cr               6.3039559766        8.3200573949       13.5345114413    0   0   0
Cr               4.2149984025        2.0754774019        9.7444374941    0   0   0
Cr               2.3000141793        2.0680484937       15.5702742334
Cr               6.1485409722        1.9861005764       15.5494393043
Cr               2.0054620409        2.1149661174       11.6192682974    0   0   0
Cr               6.3992485267        2.2488278238       11.6549867199    0   0   0
C                8.3671464633        0.0123762133        9.4921945368    0   0   0
C                8.3685510870        4.1683341954        9.4949958325    0   0   0
C                4.2233794382        0.0660683478        9.5137772640    0   0   0
C                4.2071394793        4.1170355077        9.4900603783    0   0   0
C                8.3753352139       -0.0047460034       13.6879749419    0   0   0
C                8.3555577743        4.1752016178       13.6998947017    0   0   0
C                4.2131653834        0.0054873094       13.6688163572    0   0   0
C                4.2220181648        4.1373219388       13.6924183861    0   0   0
C                2.1879057268        0.1060288205       15.8564755393
C                2.1037026521        4.0973639158       15.9489350533
C                6.2194142846        0.0896780832       15.8928196699
C                6.2818340663        4.1383137524       15.8923634269
C                2.1521326937        0.0175132539       11.5903255372    0   0   0
C                2.1078429860        4.1683083653       11.5671868517    0   0   0
C                6.2417937451        0.0188099573       11.6002801854    0   0   0
C                6.3283074126        4.1569384024       11.5682471185    0   0   0
C                8.3300621041        2.1519779414       15.7549494871
C                8.3784027178        6.3172109083       15.7273341083
C                4.1998335065        2.0498933184       15.7820191393
C                4.2181112307        6.3519021523       15.8223669840
C                0.0147673152        2.1438801594       11.5939557114    0   0   0
C                0.0200697416        6.2277703895       11.5821679336    0   0   0
C                4.2182428542        2.0594943016       11.6100232202    0   0   0
C                4.2117703951        6.2583221129       11.5919858628    0   0   0
C                2.1713130363        2.0860319016        9.4919958919    0   0   0
C                2.1164500536        6.2753611976        9.5156635851    0   0   0
C                6.2203151227        2.0809934926        9.4961719556    0   0   0
C                6.2861737462        6.2618311600        9.5257047400    0   0   0
C                2.1349207790        2.0551228178       13.6855329086    0   0   0
C                2.1043015435        6.2915359703       13.6724452320    0   0   0
C                6.2612712230        2.0678980813       13.6766563617    0   0   0
C                6.2981398968        6.2588382292       13.6653030130    0   0   0
C                2.1637963098        6.0759886182       18.0309250886
O                2.2131748731        5.9171412864       19.1640396936
O                8.3487276615        0.0611938492       18.0322705980
H                7.6444987669        0.4544940650       18.5627505427



     Writing config-only to output data dir ./tmp/hec3_CrTiV_f100_COOH_ads.save/ :
     XML data file
     NEW-OLD atomic charge density approx. for the potential

     Check: negative core charge=   -0.000005

     negative rho (up, down):  3.498E-02 0.000E+00

     total cpu time spent up to now is     2393.2 secs

     Self-consistent Calculation

     iteration #  1     ecut=    60.00 Ry     beta= 0.30
     Davidson diagonalization with overlap
     ethr =  1.00E-06,  avg # of iterations =  8.0

     negative rho (up, down):  3.497E-02 0.000E+00

     total cpu time spent up to now is     2405.4 secs

     total energy              =   -5386.56671604 Ry
     estimated scf accuracy    <       0.07199818 Ry

     iteration #  2     ecut=    60.00 Ry     beta= 0.30
     Davidson diagonalization with overlap
     ethr =  1.28E-05,  avg # of iterations = 19.0

     negative rho (up, down):  3.495E-02 0.000E+00

     total cpu time spent up to now is     2419.0 secs

     total energy              =   -5386.41654165 Ry
     estimated scf accuracy    <       8.54872734 Ry

     iteration #  3     ecut=    60.00 Ry     beta= 0.30
     Davidson diagonalization with overlap
     c_bands:  4 eigenvalues not converged
     ethr =  1.28E-05,  avg # of iterations = 20.0

     negative rho (up, down):  3.490E-02 0.000E+00

     total cpu time spent up to now is     2444.1 secs

     total energy              =   -5386.56977347 Ry
     estimated scf accuracy    <       1.02032088 Ry

     iteration #  4     ecut=    60.00 Ry     beta= 0.30
     Davidson diagonalization with overlap
     ethr =  1.28E-05,  avg # of iterations =  7.0

     negative rho (up, down):  3.495E-02 0.000E+00

     total cpu time spent up to now is     2454.2 secs

     total energy              =   -5386.59058262 Ry
     estimated scf accuracy    <       0.18058392 Ry

     iteration #  5     ecut=    60.00 Ry     beta= 0.30
     Davidson diagonalization with overlap
     ethr =  1.28E-05,  avg # of iterations =  2.0

     negative rho (up, down):  3.494E-02 0.000E+00

     total cpu time spent up to now is     2461.2 secs

     total energy              =   -5386.59452281 Ry
     estimated scf accuracy    <       0.04768835 Ry

     iteration #  6     ecut=    60.00 Ry     beta= 0.30
     Davidson diagonalization with overlap
     ethr =  8.50E-06,  avg # of iterations =  2.0

     negative rho (up, down):  3.495E-02 0.000E+00

     total cpu time spent up to now is     2468.2 secs

     total energy              =   -5386.59612991 Ry
     estimated scf accuracy    <       0.02154419 Ry

     iteration #  7     ecut=    60.00 Ry     beta= 0.30
     Davidson diagonalization with overlap
     ethr =  3.84E-06,  avg # of iterations = 11.0

     negative rho (up, down):  3.496E-02 0.000E+00

     total cpu time spent up to now is     2479.4 secs

     total energy              =   -5386.59676953 Ry
     estimated scf accuracy    <       0.00922141 Ry

     iteration #  8     ecut=    60.00 Ry     beta= 0.30
     Davidson diagonalization with overlap
     c_bands:  1 eigenvalues not converged
     ethr =  1.64E-06,  avg # of iterations = 20.0

     negative rho (up, down):  3.496E-02 0.000E+00

     total cpu time spent up to now is     2493.6 secs

     total energy              =   -5386.59706334 Ry
     estimated scf accuracy    <       0.00489521 Ry

     iteration #  9     ecut=    60.00 Ry     beta= 0.30
     Davidson diagonalization with overlap
     ethr =  8.73E-07,  avg # of iterations =  2.0

     negative rho (up, down):  3.497E-02 0.000E+00

     total cpu time spent up to now is     2501.7 secs

     total energy              =   -5386.59713105 Ry
     estimated scf accuracy    <       0.00430764 Ry

     iteration # 10     ecut=    60.00 Ry     beta= 0.30
     Davidson diagonalization with overlap
     ethr =  7.68E-07,  avg # of iterations =  1.0

     negative rho (up, down):  3.498E-02 0.000E+00

     total cpu time spent up to now is     2508.4 secs

     total energy              =   -5386.59722086 Ry
     estimated scf accuracy    <       0.00236048 Ry

     iteration # 11     ecut=    60.00 Ry     beta= 0.30
     Davidson diagonalization with overlap
     ethr =  4.21E-07,  avg # of iterations =  2.0

     negative rho (up, down):  3.498E-02 0.000E+00

     total cpu time spent up to now is     2515.8 secs

     total energy              =   -5386.59723910 Ry
     estimated scf accuracy    <       0.00260917 Ry

     iteration # 12     ecut=    60.00 Ry     beta= 0.30
     Davidson diagonalization with overlap
     ethr =  4.21E-07,  avg # of iterations =  2.0

     negative rho (up, down):  3.498E-02 0.000E+00

     total cpu time spent up to now is     2524.0 secs

     total energy              =   -5386.59708977 Ry
     estimated scf accuracy    <       0.01098940 Ry

     iteration # 13     ecut=    60.00 Ry     beta= 0.30
     Davidson diagonalization with overlap
     ethr =  4.21E-07,  avg # of iterations =  2.0

     negative rho (up, down):  3.498E-02 0.000E+00

     total cpu time spent up to now is     2531.1 secs

     total energy              =   -5386.59719851 Ry
     estimated scf accuracy    <       0.00662122 Ry

     iteration # 14     ecut=    60.00 Ry     beta= 0.30
     Davidson diagonalization with overlap
     ethr =  4.21E-07,  avg # of iterations =  1.0

     negative rho (up, down):  3.498E-02 0.000E+00

     total cpu time spent up to now is     2538.0 secs

     total energy              =   -5386.59732927 Ry
     estimated scf accuracy    <       0.00141391 Ry

     iteration # 15     ecut=    60.00 Ry     beta= 0.30
     Davidson diagonalization with overlap
     ethr =  2.52E-07,  avg # of iterations =  1.0

     negative rho (up, down):  3.498E-02 0.000E+00

     total cpu time spent up to now is     2545.0 secs

     total energy              =   -5386.59736759 Ry
     estimated scf accuracy    <       0.00007354 Ry

     iteration # 16     ecut=    60.00 Ry     beta= 0.30
     Davidson diagonalization with overlap
     ethr =  1.31E-08,  avg # of iterations =  6.0

     negative rho (up, down):  3.498E-02 0.000E+00

     total cpu time spent up to now is     2554.7 secs

     total energy              =   -5386.59735317 Ry
     estimated scf accuracy    <       0.00088279 Ry

     iteration # 17     ecut=    60.00 Ry     beta= 0.30
     Davidson diagonalization with overlap
     ethr =  1.31E-08,  avg # of iterations =  5.0

     negative rho (up, down):  3.498E-02 0.000E+00

     total cpu time spent up to now is     2563.7 secs

     total energy              =   -5386.59737085 Ry
     estimated scf accuracy    <       0.00022536 Ry

     iteration # 18     ecut=    60.00 Ry     beta= 0.30
     Davidson diagonalization with overlap
     ethr =  1.31E-08,  avg # of iterations =  5.0

     negative rho (up, down):  3.498E-02 0.000E+00

     total cpu time spent up to now is     2576.9 secs

     total energy              =   -5386.59737575 Ry
     estimated scf accuracy    <       0.00008200 Ry

     iteration # 19     ecut=    60.00 Ry     beta= 0.30
     Davidson diagonalization with overlap
     ethr =  1.31E-08,  avg # of iterations =  2.0

     negative rho (up, down):  3.498E-02 0.000E+00

     total cpu time spent up to now is     2585.0 secs

     total energy              =   -5386.59737665 Ry
     estimated scf accuracy    <       0.00009796 Ry

     iteration # 20     ecut=    60.00 Ry     beta= 0.30
     Davidson diagonalization with overlap
     ethr =  1.31E-08,  avg # of iterations =  2.0

     negative rho (up, down):  3.498E-02 0.000E+00

     total cpu time spent up to now is     2592.4 secs

     total energy              =   -5386.59737801 Ry
     estimated scf accuracy    <       0.00006239 Ry

     iteration # 21     ecut=    60.00 Ry     beta= 0.30
     Davidson diagonalization with overlap
     ethr =  1.11E-08,  avg # of iterations =  2.0

     negative rho (up, down):  3.498E-02 0.000E+00

     total cpu time spent up to now is     2599.6 secs

     total energy              =   -5386.59737851 Ry
     estimated scf accuracy    <       0.00007592 Ry

     iteration # 22     ecut=    60.00 Ry     beta= 0.30
     Davidson diagonalization with overlap
     ethr =  1.11E-08,  avg # of iterations =  1.0

     negative rho (up, down):  3.498E-02 0.000E+00

     total cpu time spent up to now is     2607.1 secs

     total energy              =   -5386.59738089 Ry
     estimated scf accuracy    <       0.00001719 Ry

     iteration # 23     ecut=    60.00 Ry     beta= 0.30
     Davidson diagonalization with overlap
     ethr =  3.06E-09,  avg # of iterations =  2.0

     negative rho (up, down):  3.498E-02 0.000E+00

     total cpu time spent up to now is     2614.8 secs

     total energy              =   -5386.59738093 Ry
     estimated scf accuracy    <       0.00002592 Ry

     iteration # 24     ecut=    60.00 Ry     beta= 0.30
     Davidson diagonalization with overlap
     ethr =  3.06E-09,  avg # of iterations =  1.0

     negative rho (up, down):  3.498E-02 0.000E+00

     total cpu time spent up to now is     2621.8 secs

     total energy              =   -5386.59738036 Ry
     estimated scf accuracy    <       0.00005475 Ry

     iteration # 25     ecut=    60.00 Ry     beta= 0.30
     Davidson diagonalization with overlap
     ethr =  3.06E-09,  avg # of iterations =  2.0

     negative rho (up, down):  3.498E-02 0.000E+00

     total cpu time spent up to now is     2629.4 secs

     total energy              =   -5386.59738120 Ry
     estimated scf accuracy    <       0.00001972 Ry

     iteration # 26     ecut=    60.00 Ry     beta= 0.30
     Davidson diagonalization with overlap
     ethr =  3.06E-09,  avg # of iterations =  1.0

     negative rho (up, down):  3.498E-02 0.000E+00

     total cpu time spent up to now is     2636.9 secs

     total energy              =   -5386.59738167 Ry
     estimated scf accuracy    <       0.00000905 Ry

     iteration # 27     ecut=    60.00 Ry     beta= 0.30
     Davidson diagonalization with overlap
     ethr =  1.61E-09,  avg # of iterations =  1.0

     negative rho (up, down):  3.498E-02 0.000E+00

     total cpu time spent up to now is     2643.8 secs

     total energy              =   -5386.59738188 Ry
     estimated scf accuracy    <       0.00000359 Ry

     iteration # 28     ecut=    60.00 Ry     beta= 0.30
     Davidson diagonalization with overlap
     ethr =  6.40E-10,  avg # of iterations =  1.0

     negative rho (up, down):  3.498E-02 0.000E+00

     total cpu time spent up to now is     2650.6 secs

     total energy              =   -5386.59738193 Ry
     estimated scf accuracy    <       0.00000143 Ry

     iteration # 29     ecut=    60.00 Ry     beta= 0.30
     Davidson diagonalization with overlap
     ethr =  2.54E-10,  avg # of iterations =  6.0

     negative rho (up, down):  3.498E-02 0.000E+00

     total cpu time spent up to now is     2659.2 secs

     total energy              =   -5386.59738175 Ry
     estimated scf accuracy    <       0.00000943 Ry

     iteration # 30     ecut=    60.00 Ry     beta= 0.30
     Davidson diagonalization with overlap
     ethr =  2.54E-10,  avg # of iterations =  5.0

     negative rho (up, down):  3.498E-02 0.000E+00

     total cpu time spent up to now is     2667.5 secs

     total energy              =   -5386.59738197 Ry
     estimated scf accuracy    <       0.00000293 Ry

     iteration # 31     ecut=    60.00 Ry     beta= 0.30
     Davidson diagonalization with overlap
     ethr =  2.54E-10,  avg # of iterations =  2.0

     negative rho (up, down):  3.498E-02 0.000E+00

     total cpu time spent up to now is     2674.8 secs

     total energy              =   -5386.59738205 Ry
     estimated scf accuracy    <       0.00000131 Ry

     iteration # 32     ecut=    60.00 Ry     beta= 0.30
     Davidson diagonalization with overlap
     ethr =  2.33E-10,  avg # of iterations =  2.0

     negative rho (up, down):  3.498E-02 0.000E+00

     total cpu time spent up to now is     2682.1 secs

     total energy              =   -5386.59738209 Ry
     estimated scf accuracy    <       0.00000053 Ry

     iteration # 33     ecut=    60.00 Ry     beta= 0.30
     Davidson diagonalization with overlap
     ethr =  9.54E-11,  avg # of iterations =  2.0

     negative rho (up, down):  3.498E-02 0.000E+00

     total cpu time spent up to now is     2689.8 secs

     total energy              =   -5386.59738209 Ry
     estimated scf accuracy    <       0.00000035 Ry

     iteration # 34     ecut=    60.00 Ry     beta= 0.30
     Davidson diagonalization with overlap
     ethr =  6.17E-11,  avg # of iterations =  3.0

     negative rho (up, down):  3.498E-02 0.000E+00

     total cpu time spent up to now is     2697.2 secs

     total energy              =   -5386.59738206 Ry
     estimated scf accuracy    <       0.00000259 Ry

     iteration # 35     ecut=    60.00 Ry     beta= 0.30
     Davidson diagonalization with overlap
     ethr =  6.17E-11,  avg # of iterations =  5.0

     negative rho (up, down):  3.498E-02 0.000E+00

     total cpu time spent up to now is     2705.1 secs

     total energy              =   -5386.59738207 Ry
     estimated scf accuracy    <       0.00000229 Ry

     iteration # 36     ecut=    60.00 Ry     beta= 0.30
     Davidson diagonalization with overlap
     ethr =  6.17E-11,  avg # of iterations =  5.0

     negative rho (up, down):  3.498E-02 0.000E+00

     total cpu time spent up to now is     2713.0 secs

     total energy              =   -5386.59738211 Ry
     estimated scf accuracy    <       0.00000035 Ry

     iteration # 37     ecut=    60.00 Ry     beta= 0.30
     Davidson diagonalization with overlap
     ethr =  6.17E-11,  avg # of iterations =  1.0

     negative rho (up, down):  3.498E-02 0.000E+00

     total cpu time spent up to now is     2720.1 secs

     total energy              =   -5386.59738212 Ry
     estimated scf accuracy    <       0.00000013 Ry

     iteration # 38     ecut=    60.00 Ry     beta= 0.30
     Davidson diagonalization with overlap
     ethr =  2.28E-11,  avg # of iterations =  2.0

     negative rho (up, down):  3.498E-02 0.000E+00

     total cpu time spent up to now is     2727.4 secs

     total energy              =   -5386.59738213 Ry
     estimated scf accuracy    <       0.00000006 Ry

     iteration # 39     ecut=    60.00 Ry     beta= 0.30
     Davidson diagonalization with overlap
     ethr =  1.11E-11,  avg # of iterations =  2.0

     negative rho (up, down):  3.498E-02 0.000E+00

     total cpu time spent up to now is     2734.6 secs

     total energy              =   -5386.59738213 Ry
     estimated scf accuracy    <       0.00000006 Ry

     iteration # 40     ecut=    60.00 Ry     beta= 0.30
     Davidson diagonalization with overlap
     ethr =  1.11E-11,  avg # of iterations =  2.0

     negative rho (up, down):  3.498E-02 0.000E+00

     total cpu time spent up to now is     2742.3 secs

     total energy              =   -5386.59738212 Ry
     estimated scf accuracy    <       0.00000014 Ry

     iteration # 41     ecut=    60.00 Ry     beta= 0.30
     Davidson diagonalization with overlap
     ethr =  1.11E-11,  avg # of iterations =  2.0

     negative rho (up, down):  3.498E-02 0.000E+00

     total cpu time spent up to now is     2749.4 secs

     total energy              =   -5386.59738212 Ry
     estimated scf accuracy    <       0.00000014 Ry

     iteration # 42     ecut=    60.00 Ry     beta= 0.30
     Davidson diagonalization with overlap
     ethr =  1.11E-11,  avg # of iterations =  1.0

     negative rho (up, down):  3.498E-02 0.000E+00

     total cpu time spent up to now is     2756.3 secs

     total energy              =   -5386.59738213 Ry
     estimated scf accuracy    <       0.00000003 Ry

     iteration # 43     ecut=    60.00 Ry     beta= 0.30
     Davidson diagonalization with overlap
     ethr =  6.02E-12,  avg # of iterations =  1.0

     negative rho (up, down):  3.498E-02 0.000E+00

     total cpu time spent up to now is     2763.2 secs

     total energy              =   -5386.59738213 Ry
     estimated scf accuracy    <       0.00000001 Ry

     iteration # 44     ecut=    60.00 Ry     beta= 0.30
     Davidson diagonalization with overlap
     ethr =  2.47E-12,  avg # of iterations =  5.0

     negative rho (up, down):  3.498E-02 0.000E+00

     total cpu time spent up to now is     2771.1 secs

     total energy              =   -5386.59738213 Ry
     estimated scf accuracy    <       0.00000009 Ry

     iteration # 45     ecut=    60.00 Ry     beta= 0.30
     Davidson diagonalization with overlap
     ethr =  2.47E-12,  avg # of iterations =  2.0

     negative rho (up, down):  3.498E-02 0.000E+00

     total cpu time spent up to now is     2778.4 secs

     total energy              =   -5386.59738213 Ry
     estimated scf accuracy    <       0.00000003 Ry

     iteration # 46     ecut=    60.00 Ry     beta= 0.30
     Davidson diagonalization with overlap
     ethr =  2.47E-12,  avg # of iterations =  2.0

     negative rho (up, down):  3.498E-02 0.000E+00

     total cpu time spent up to now is     2786.0 secs

     total energy              =   -5386.59738213 Ry
     estimated scf accuracy    <       0.00000003 Ry

     iteration # 47     ecut=    60.00 Ry     beta= 0.30
     Davidson diagonalization with overlap
     ethr =  2.47E-12,  avg # of iterations =  1.0

     negative rho (up, down):  3.498E-02 0.000E+00

     total cpu time spent up to now is     2792.4 secs

     total energy              =   -5386.59738213 Ry
     estimated scf accuracy    <       0.00000002 Ry

     iteration # 48     ecut=    60.00 Ry     beta= 0.30
     Davidson diagonalization with overlap
     ethr =  2.47E-12,  avg # of iterations =  1.0

     negative rho (up, down):  3.498E-02 0.000E+00

     total cpu time spent up to now is     2799.0 secs

     total energy              =   -5386.59738213 Ry
     estimated scf accuracy    <          6.0E-09 Ry

     iteration # 49     ecut=    60.00 Ry     beta= 0.30
     Davidson diagonalization with overlap
     ethr =  1.07E-12,  avg # of iterations =  1.0

     negative rho (up, down):  3.498E-02 0.000E+00

     total cpu time spent up to now is     2805.6 secs

     End of self-consistent calculation

          k = 0.0000 0.0000 0.0000 ( 46961 PWs)   bands (ev):

   -69.5531 -69.5283 -69.5165 -69.5118 -69.4691 -69.4472 -69.4328 -69.4304
   -69.4226 -69.3915 -69.2396 -62.0561 -62.0450 -62.0311 -61.9930 -61.9108
   -61.9102 -61.9086 -61.8803 -61.8010 -61.7561 -54.2992 -54.2682 -54.2681
   -54.1088 -53.9589 -53.9446 -53.9235 -53.9074 -53.8905 -53.8697 -53.6208
   -41.0274 -40.9685 -40.9587 -40.9377 -40.9316 -40.9144 -40.9117 -40.8936
   -40.8835 -40.8738 -40.8705 -40.8576 -40.8524 -40.8506 -40.8398 -40.8282
   -40.8183 -40.8065 -40.8020 -40.7974 -40.7947 -40.7734 -40.7724 -40.7535
   -40.7386 -40.7372 -40.7250 -40.7076 -40.6953 -40.6770 -40.6474 -40.6002
   -40.4618 -36.0509 -36.0027 -35.9737 -35.9607 -35.9492 -35.9373 -35.9162
   -35.8885 -35.8642 -35.8583 -35.8332 -35.8269 -35.8253 -35.8210 -35.7995
   -35.7910 -35.7865 -35.7810 -35.7673 -35.7625 -35.7462 -35.7324 -35.7280
   -35.7021 -35.6865 -35.6833 -35.6796 -35.6321 -35.5701 -35.4947 -30.7284
   -30.6933 -30.6777 -30.5566 -30.5423 -30.5279 -30.5207 -30.5182 -30.5158
   -30.4742 -30.4389 -30.4246 -30.3898 -30.3807 -30.3450 -30.3442 -30.3179
   -30.3142 -30.3091 -30.2980 -30.2737 -30.2536 -30.2361 -30.1961 -30.1868
   -30.1748 -30.1460 -30.1244 -30.1212 -30.0717 -29.9967 -29.9491 -29.9034
   -21.7273 -16.2113 -10.7225  -9.6538  -9.2470  -9.1692  -9.0714  -8.9329
    -8.5850  -8.3705  -8.3369  -8.2723  -8.2179  -8.1362  -8.0760  -7.9457
    -7.9205  -7.7899  -7.6959  -7.6308  -7.5425  -7.5047  -7.4412  -7.4253
    -7.3899  -7.3644  -7.2524  -7.2259  -7.1422  -6.9892  -6.8553  -6.7838
    -6.7545  -6.6410  -6.4694  -4.3352  -4.3159  -3.9822  -3.9212  -3.8696
    -3.8009  -3.6695  -3.2315  -2.9459  -2.8281  -2.7484  -2.6928  -2.6144
    -2.5738  -2.4605  -2.4519  -2.3906  -2.3314  -2.3223  -2.1606  -2.0719
    -2.0284  -1.9466  -1.7993  -1.7862  -1.7586  -1.7264  -1.6025  -1.5431
    -1.4957  -1.4518  -1.4279  -1.3801  -1.3550  -1.3382  -1.3269  -1.3091
    -1.2949  -1.2813  -1.2501  -1.2427  -1.2054  -1.1795  -1.1587  -1.0616
    -1.0484  -1.0100  -0.9776  -0.9545  -0.9293  -0.8708  -0.8546  -0.8163
    -0.7784  -0.7538  -0.7026  -0.6766  -0.6515  -0.6428  -0.6246  -0.6118
    -0.5899  -0.5670  -0.5472  -0.5227  -0.5084  -0.4292  -0.3564  -0.3180
    -0.3161  -0.2501  -0.2015  -0.1494  -0.1268  -0.0769  -0.0143   0.0261
     0.0646   0.0927   0.1211   0.1824   0.2822   0.2879   0.3060   0.4964
     0.5236   0.6636   0.6967   0.7562   0.8093   0.9366   0.9691   1.0262
     1.1239   1.1544   1.2548   1.3022   1.3355   1.4407   1.4776   1.5260
     1.5495   1.7686   1.8223   1.8685   1.8889   1.9186   2.1054   2.1280
     2.2172   2.5530   2.6501   2.6598   2.7609   2.8296   2.9297   2.9720
     2.9955   3.0309   3.1046   3.1311   3.1607   3.1921   3.2282   3.2523
     3.2764   3.3131   3.3341   3.3712   3.4000   3.4068   3.4448   3.4679
     3.4975   3.5243   3.5751   3.5939   3.6483   3.6992   3.7228   3.7515
     3.7789   3.8294   3.8788   3.9016   3.9657   3.9843   4.0124   4.0240
     4.0736   4.0904   4.1369   4.1554   4.1874   4.2167   4.2454   4.2657
     4.2852   4.3195   4.3763   4.4155   4.4456   4.4788   4.5317   4.5550
     4.5994   4.6102   4.6541   4.7327   4.7500   4.8069   4.8374   4.8641
     4.8963

     the Fermi energy is     2.9980 ev

!    total energy              =   -5386.59738213 Ry
     estimated scf accuracy    <          3.7E-09 Ry
     smearing contrib. (-TS)   =      -0.03026548 Ry
     internal energy E=F+TS    =   -5386.56711665 Ry

     The total energy is F=E-TS. E is the sum of the following terms:
     one-electron contribution =  -55982.97413183 Ry
     hartree contribution      =   28024.95478533 Ry
     xc contribution           =    -807.42737146 Ry
     ewald contribution        =   23601.70998570 Ry
     one-center paw contrib.   =    -222.83038438 Ry

     convergence has been achieved in  49 iterations

     negative rho (up, down):  3.498E-02 0.000E+00

     Forces acting on atoms (cartesian axes, Ry/au):

     atom    1 type  1   force =     0.00117541   -0.00213683    0.00924846
     atom    2 type  1   force =    -0.00279726   -0.00831878    0.00427689
     atom    3 type  1   force =    -0.01029417    0.02952920   -0.00727258
     atom    4 type  1   force =     0.00042132   -0.01548172    0.02882516
     atom    5 type  1   force =    -0.00292612    0.01118628   -0.00188381
     atom    6 type  1   force =     0.00820031   -0.00141685    0.02782728
     atom    7 type  1   force =    -0.00036412   -0.02682244   -0.01864741
     atom    8 type  1   force =     0.01228140    0.02475493    0.00440351
     atom    9 type  1   force =    -0.01216438   -0.00696649   -0.03438900
     atom   10 type  1   force =    -0.00130553   -0.00795838    0.00551033
     atom   11 type  1   force =     0.00421629   -0.00381086    0.00310930
     atom   12 type  2   force =     0.00152886   -0.00974998    0.00090844
     atom   13 type  2   force =     0.00171770   -0.00486058    0.00050207
     atom   14 type  2   force =     0.02345631   -0.00742656    0.01909195
     atom   15 type  2   force =    -0.01148979    0.00000588    0.11424444
     atom   16 type  2   force =     0.00486339    0.00089313    0.09589606
     atom   17 type  2   force =    -0.04389533   -0.01804197   -0.02923486
     atom   18 type  2   force =     0.00915633    0.01718141   -0.03596981
     atom   19 type  2   force =    -0.00803454    0.01171544   -0.03308412
     atom   20 type  2   force =    -0.00145173   -0.01099174    0.00312764
     atom   21 type  2   force =     0.00849324    0.01623742   -0.00462502
     atom   22 type  3   force =    -0.00012575    0.00425439   -0.00355234
     atom   23 type  3   force =    -0.02404803   -0.01187606   -0.00797705
     atom   24 type  3   force =     0.01785476    0.01516488   -0.01554227
     atom   25 type  3   force =     0.01630528   -0.01273026    0.06483913
     atom   26 type  3   force =    -0.00422163    0.01144114    0.12480517
     atom   27 type  3   force =     0.03759930   -0.00271023   -0.00184574
     atom   28 type  3   force =    -0.00647441    0.00195699    0.04189022
     atom   29 type  3   force =    -0.00651085   -0.00603821   -0.01254297
     atom   30 type  3   force =     0.01027610   -0.00231166   -0.01112702
     atom   31 type  3   force =     0.00048667   -0.00147098   -0.01004373
     atom   32 type  3   force =    -0.00475022   -0.00152433   -0.00862075
     atom   33 type  4   force =    -0.00017625   -0.00771177   -0.03340763
     atom   34 type  4   force =     0.00963770    0.01264284   -0.00328582
     atom   35 type  4   force =    -0.00209205   -0.01838175   -0.02339720
     atom   36 type  4   force =     0.00090413    0.00998022   -0.03601749
     atom   37 type  4   force =     0.00286475    0.00349613    0.02516510
     atom   38 type  4   force =     0.00440757   -0.01341393    0.02042299
     atom   39 type  4   force =     0.00672041   -0.00658194    0.02636279
     atom   40 type  4   force =     0.00256379   -0.00337775    0.00539169
     atom   41 type  4   force =    -0.00046434    0.00175056    0.00667037
     atom   42 type  4   force =     0.00101196    0.00430178    0.00141682
     atom   43 type  4   force =    -0.00604623    0.00194499    0.00176873
     atom   44 type  4   force =    -0.00241953    0.00648040    0.00595632
     atom   45 type  4   force =     0.00620986    0.00730789   -0.04140297
     atom   46 type  4   force =     0.00255231    0.00001322   -0.04300203
     atom   47 type  4   force =    -0.00719776   -0.00001451   -0.02864673
     atom   48 type  4   force =    -0.01278411   -0.00981937   -0.02243539
     atom   49 type  4   force =    -0.00784044    0.00983326    0.01459016
     atom   50 type  4   force =    -0.00319326    0.00788929    0.01600020
     atom   51 type  4   force =     0.00143175    0.00456839    0.00450482
     atom   52 type  4   force =    -0.00062560    0.00821460    0.00112651
     atom   53 type  4   force =    -0.00221794    0.00325378   -0.03372613
     atom   54 type  4   force =    -0.00639690    0.00410837   -0.04832732
     atom   55 type  4   force =    -0.00140831    0.00687956   -0.03022011
     atom   56 type  4   force =    -0.00214464   -0.00744904   -0.03236987
     atom   57 type  4   force =    -0.01559864    0.00812564   -0.02960180
     atom   58 type  4   force =    -0.00951861   -0.00559586   -0.03925299
     atom   59 type  4   force =     0.01421724    0.01123280   -0.03245253
     atom   60 type  4   force =     0.00211574   -0.01029869   -0.02208889
     atom   61 type  4   force =     0.01025800   -0.00059503    0.01879363
     atom   62 type  4   force =     0.00286237   -0.00531122    0.02252933
     atom   63 type  4   force =    -0.00449209   -0.00318842    0.00901365
     atom   64 type  4   force =    -0.00043502   -0.00467428    0.02453438
     atom   65 type  4   force =    -0.00096504    0.00022749    0.00766073
     atom   66 type  5   force =    -0.00073708    0.00219455   -0.01254569
     atom   67 type  5   force =     0.00558007   -0.00272847   -0.01594867
     atom   68 type  6   force =    -0.00376264    0.00302010    0.00407344

     Total force =     0.049181     Total SCF correction =     0.000066
     Energy error            =      4.0E-03 Ry
     Gradient error          =      1.6E-02 Ry/Bohr

     number of scf cycles    =   7
     number of bfgs steps    =   6

     energy             old  =   -5386.5934312913 Ry
     energy             new  =   -5386.5973821280 Ry

     CASE: energy            _new < energy            _old

     new trust radius        =       0.0361499261 bohr
     new conv_thr            =       0.0000000016 Ry


ATOMIC_POSITIONS (angstrom)
Ti               0.0311328544        0.0391494022       16.1684615419
Ti               0.0291331002        8.3621570543       11.5803477355    0   0   0
Ti               2.0975368417        4.1651924041       13.6995846818    0   0   0
Ti               8.3795041056        2.0957563981        9.4724378689    0   0   0
Ti               8.3750099733        6.2687152092        9.4933225157    0   0   0
Ti               4.2170671874        6.2898439467        9.4911460380    0   0   0
Ti               8.3706959315        2.0992468883       13.7196199333    0   0   0
Ti               8.3814371399        6.2587905921       13.6914936631    0   0   0
Ti               4.2074509867        6.2621252961       13.6953624844    0   0   0
Ti               2.1274311457        6.2295865544       15.8130974274
Ti               6.3096769605        6.2657045757       15.7597879181
V                8.3803601979        4.0488430850       15.7069888236
V                4.2509804126        4.0957517598       15.6448919699
V                4.1453105473        4.2119457891       11.5975026988    0   0   0
V                2.1879867013        0.0520231596        9.5054883674    0   0   0
V                2.1522427348        4.1319303501        9.4904675789    0   0   0
V                2.0919720210       -0.0034525136       13.6809547049    0   0   0
V                6.2957223951        4.1813414611       13.7896152224    0   0   0
V                4.2104512702        2.0785028673       13.6089365586    0   0   0
V                2.1048639148        6.2714192178       11.5723879270    0   0   0
V                6.3158808164        6.1438819511       11.5700667150    0   0   0
Cr               4.2230339991       -0.0476165997       15.5434343936
Cr               0.1179128009        4.1786640750       11.5195623927    0   0   0
Cr               4.1681598842        8.2577799257       11.6615352591    0   0   0
Cr               6.1999882077        0.1106418811        9.6948923906    0   0   0
Cr               6.2007452456        4.0563627707        9.3394942948    0   0   0
Cr               6.3039559766        8.3200573949       13.5345114413    0   0   0
Cr               4.2149984025        2.0754774019        9.7444374941    0   0   0
Cr               2.3022205634        2.0590373409       15.5727069799
Cr               6.1500939785        1.9821225116       15.5510250581
Cr               2.0054620409        2.1149661174       11.6192682974    0   0   0
Cr               6.3992485267        2.2488278238       11.6549867199    0   0   0
C                8.3671464633        0.0123762133        9.4921945368    0   0   0
C                8.3685510870        4.1683341954        9.4949958325    0   0   0
C                4.2233794382        0.0660683478        9.5137772640    0   0   0
C                4.2071394793        4.1170355077        9.4900603783    0   0   0
C                8.3753352139       -0.0047460034       13.6879749419    0   0   0
C                8.3555577743        4.1752016178       13.6998947017    0   0   0
C                4.2131653834        0.0054873094       13.6688163572    0   0   0
C                4.2220181648        4.1373219388       13.6924183861    0   0   0
C                2.1882157518        0.1103980438       15.8610177270
C                2.1055031771        4.1036209115       15.9526582205
C                6.2149112499        0.0931022516       15.8937041587
C                6.2774679620        4.1462005766       15.8985042344
C                2.1521326937        0.0175132539       11.5903255372    0   0   0
C                2.1078429860        4.1683083653       11.5671868517    0   0   0
C                6.2417937451        0.0188099573       11.6002801854    0   0   0
C                6.3283074126        4.1569384024       11.5682471185    0   0   0
C                8.3218626627        2.1549336460       15.7675625801
C                8.3778085496        6.3305132280       15.7410687845
C                4.1992547987        2.0572211570       15.7833162468
C                4.2162557186        6.3600328589       15.8208413032
C                0.0147673152        2.1438801594       11.5939557114    0   0   0
C                0.0200697416        6.2277703895       11.5821679336    0   0   0
C                4.2182428542        2.0594943016       11.6100232202    0   0   0
C                4.2117703951        6.2583221129       11.5919858628    0   0   0
C                2.1713130363        2.0860319016        9.4919958919    0   0   0
C                2.1164500536        6.2753611976        9.5156635851    0   0   0
C                6.2203151227        2.0809934926        9.4961719556    0   0   0
C                6.2861737462        6.2618311600        9.5257047400    0   0   0
C                2.1349207790        2.0551228178       13.6855329086    0   0   0
C                2.1043015435        6.2915359703       13.6724452320    0   0   0
C                6.2612712230        2.0678980813       13.6766563617    0   0   0
C                6.2981398968        6.2588382292       13.6653030130    0   0   0
C                2.1617911045        6.0783177523       18.0302756217
O                2.2131423594        5.9177543005       19.1570673054
O                8.3522778952        0.0595126651       18.0241433854
H                7.6421904428        0.4567844971       18.5666177827



     Writing config-only to output data dir ./tmp/hec3_CrTiV_f100_COOH_ads.save/ :
     XML data file
     NEW-OLD atomic charge density approx. for the potential

     Check: negative core charge=   -0.000005

     negative rho (up, down):  3.524E-02 0.000E+00

     total cpu time spent up to now is     2818.1 secs

     Self-consistent Calculation

     iteration #  1     ecut=    60.00 Ry     beta= 0.30
     Davidson diagonalization with overlap
     ethr =  1.00E-06,  avg # of iterations =  7.0

     negative rho (up, down):  3.522E-02 0.000E+00

     total cpu time spent up to now is     2828.7 secs

     total energy              =   -5386.59657400 Ry
     estimated scf accuracy    <       0.00774773 Ry

     iteration #  2     ecut=    60.00 Ry     beta= 0.30
     Davidson diagonalization with overlap
     c_bands:  1 eigenvalues not converged
     ethr =  1.38E-06,  avg # of iterations = 20.0

     negative rho (up, down):  3.523E-02 0.000E+00

     total cpu time spent up to now is     2842.7 secs

     total energy              =   -5386.58620295 Ry
     estimated scf accuracy    <       0.49458056 Ry

     iteration #  3     ecut=    60.00 Ry     beta= 0.30
     Davidson diagonalization with overlap
     c_bands:  2 eigenvalues not converged
     ethr =  1.38E-06,  avg # of iterations = 20.0

     negative rho (up, down):  3.522E-02 0.000E+00

     total cpu time spent up to now is     2856.1 secs

     total energy              =   -5386.59576854 Ry
     estimated scf accuracy    <       0.15310389 Ry

     iteration #  4     ecut=    60.00 Ry     beta= 0.30
     Davidson diagonalization with overlap
     ethr =  1.38E-06,  avg # of iterations = 11.0

     negative rho (up, down):  3.524E-02 0.000E+00

     total cpu time spent up to now is     2866.3 secs

     total energy              =   -5386.59827335 Ry
     estimated scf accuracy    <       0.03171173 Ry

     iteration #  5     ecut=    60.00 Ry     beta= 0.30
     Davidson diagonalization with overlap
     ethr =  1.38E-06,  avg # of iterations =  2.0

     negative rho (up, down):  3.523E-02 0.000E+00

     total cpu time spent up to now is     2873.5 secs

     total energy              =   -5386.59879660 Ry
     estimated scf accuracy    <       0.01349553 Ry

     iteration #  6     ecut=    60.00 Ry     beta= 0.30
     Davidson diagonalization with overlap
     ethr =  1.38E-06,  avg # of iterations =  2.0

     negative rho (up, down):  3.524E-02 0.000E+00

     total cpu time spent up to now is     2880.5 secs

     total energy              =   -5386.59910899 Ry
     estimated scf accuracy    <       0.00442475 Ry

     iteration #  7     ecut=    60.00 Ry     beta= 0.30
     Davidson diagonalization with overlap
     ethr =  7.89E-07,  avg # of iterations =  2.0

     negative rho (up, down):  3.523E-02 0.000E+00

     total cpu time spent up to now is     2887.8 secs

     total energy              =   -5386.59923230 Ry
     estimated scf accuracy    <       0.00178754 Ry

     iteration #  8     ecut=    60.00 Ry     beta= 0.30
     Davidson diagonalization with overlap
     ethr =  3.19E-07,  avg # of iterations =  2.0

     negative rho (up, down):  3.523E-02 0.000E+00

     total cpu time spent up to now is     2895.4 secs

     total energy              =   -5386.59927193 Ry
     estimated scf accuracy    <       0.00161297 Ry

     iteration #  9     ecut=    60.00 Ry     beta= 0.30
     Davidson diagonalization with overlap
     ethr =  2.88E-07,  avg # of iterations =  1.0

     negative rho (up, down):  3.524E-02 0.000E+00

     total cpu time spent up to now is     2902.4 secs

     total energy              =   -5386.59932180 Ry
     estimated scf accuracy    <       0.00058248 Ry

     iteration # 10     ecut=    60.00 Ry     beta= 0.30
     Davidson diagonalization with overlap
     ethr =  1.04E-07,  avg # of iterations =  2.0

     negative rho (up, down):  3.524E-02 0.000E+00

     total cpu time spent up to now is     2909.4 secs

     total energy              =   -5386.59933462 Ry
     estimated scf accuracy    <       0.00033837 Ry

     iteration # 11     ecut=    60.00 Ry     beta= 0.30
     Davidson diagonalization with overlap
     ethr =  6.03E-08,  avg # of iterations =  2.0

     negative rho (up, down):  3.523E-02 0.000E+00

     total cpu time spent up to now is     2916.3 secs

     total energy              =   -5386.59933120 Ry
     estimated scf accuracy    <       0.00058114 Ry

     iteration # 12     ecut=    60.00 Ry     beta= 0.30
     Davidson diagonalization with overlap
     ethr =  6.03E-08,  avg # of iterations =  2.0

     negative rho (up, down):  3.524E-02 0.000E+00

     total cpu time spent up to now is     2923.4 secs

     total energy              =   -5386.59933327 Ry
     estimated scf accuracy    <       0.00065979 Ry

     iteration # 13     ecut=    60.00 Ry     beta= 0.30
     Davidson diagonalization with overlap
     ethr =  6.03E-08,  avg # of iterations =  2.0

     negative rho (up, down):  3.524E-02 0.000E+00

     total cpu time spent up to now is     2930.7 secs

     total energy              =   -5386.59933922 Ry
     estimated scf accuracy    <       0.00084523 Ry

     iteration # 14     ecut=    60.00 Ry     beta= 0.30
     Davidson diagonalization with overlap
     ethr =  6.03E-08,  avg # of iterations =  1.0

     negative rho (up, down):  3.524E-02 0.000E+00

     total cpu time spent up to now is     2937.6 secs

     total energy              =   -5386.59934865 Ry
     estimated scf accuracy    <       0.00058169 Ry

     iteration # 15     ecut=    60.00 Ry     beta= 0.30
     Davidson diagonalization with overlap
     ethr =  6.03E-08,  avg # of iterations =  1.0

     negative rho (up, down):  3.524E-02 0.000E+00

     total cpu time spent up to now is     2944.3 secs

     total energy              =   -5386.59935913 Ry
     estimated scf accuracy    <       0.00003512 Ry

     iteration # 16     ecut=    60.00 Ry     beta= 0.30
     Davidson diagonalization with overlap
     ethr =  6.26E-09,  avg # of iterations =  5.0

     negative rho (up, down):  3.524E-02 0.000E+00

     total cpu time spent up to now is     2952.4 secs

     total energy              =   -5386.59935848 Ry
     estimated scf accuracy    <       0.00011875 Ry

     iteration # 17     ecut=    60.00 Ry     beta= 0.30
     Davidson diagonalization with overlap
     ethr =  6.26E-09,  avg # of iterations =  1.0

     negative rho (up, down):  3.524E-02 0.000E+00

     total cpu time spent up to now is     2959.2 secs

     total energy              =   -5386.59936139 Ry
     estimated scf accuracy    <       0.00002596 Ry

     iteration # 18     ecut=    60.00 Ry     beta= 0.30
     Davidson diagonalization with overlap
     ethr =  4.63E-09,  avg # of iterations =  2.0

     negative rho (up, down):  3.524E-02 0.000E+00

     total cpu time spent up to now is     2966.4 secs

     total energy              =   -5386.59936214 Ry
     estimated scf accuracy    <       0.00000572 Ry

     iteration # 19     ecut=    60.00 Ry     beta= 0.30
     Davidson diagonalization with overlap
     ethr =  1.02E-09,  avg # of iterations =  5.0

     negative rho (up, down):  3.524E-02 0.000E+00

     total cpu time spent up to now is     2974.4 secs

     total energy              =   -5386.59936204 Ry
     estimated scf accuracy    <       0.00001203 Ry

     iteration # 20     ecut=    60.00 Ry     beta= 0.30
     Davidson diagonalization with overlap
     ethr =  1.02E-09,  avg # of iterations =  2.0

     negative rho (up, down):  3.524E-02 0.000E+00

     total cpu time spent up to now is     2981.5 secs

     total energy              =   -5386.59936228 Ry
     estimated scf accuracy    <       0.00000635 Ry

     iteration # 21     ecut=    60.00 Ry     beta= 0.30
     Davidson diagonalization with overlap
     ethr =  1.02E-09,  avg # of iterations =  2.0

     negative rho (up, down):  3.524E-02 0.000E+00

     total cpu time spent up to now is     2988.7 secs

     total energy              =   -5386.59936233 Ry
     estimated scf accuracy    <       0.00000882 Ry

     iteration # 22     ecut=    60.00 Ry     beta= 0.30
     Davidson diagonalization with overlap
     ethr =  1.02E-09,  avg # of iterations =  1.0

     negative rho (up, down):  3.524E-02 0.000E+00

     total cpu time spent up to now is     2995.3 secs

     total energy              =   -5386.59936257 Ry
     estimated scf accuracy    <       0.00000363 Ry

     iteration # 23     ecut=    60.00 Ry     beta= 0.30
     Davidson diagonalization with overlap
     ethr =  6.46E-10,  avg # of iterations =  1.0

     negative rho (up, down):  3.524E-02 0.000E+00

     total cpu time spent up to now is     3001.8 secs

     total energy              =   -5386.59936260 Ry
     estimated scf accuracy    <       0.00000547 Ry

     iteration # 24     ecut=    60.00 Ry     beta= 0.30
     Davidson diagonalization with overlap
     ethr =  6.46E-10,  avg # of iterations =  1.0

     negative rho (up, down):  3.524E-02 0.000E+00

     total cpu time spent up to now is     3008.5 secs

     total energy              =   -5386.59936260 Ry
     estimated scf accuracy    <       0.00000632 Ry

     iteration # 25     ecut=    60.00 Ry     beta= 0.30
     Davidson diagonalization with overlap
     ethr =  6.46E-10,  avg # of iterations =  2.0

     negative rho (up, down):  3.524E-02 0.000E+00

     total cpu time spent up to now is     3015.8 secs

     total energy              =   -5386.59936256 Ry
     estimated scf accuracy    <       0.00000680 Ry

     iteration # 26     ecut=    60.00 Ry     beta= 0.30
     Davidson diagonalization with overlap
     ethr =  6.46E-10,  avg # of iterations =  1.0

     negative rho (up, down):  3.524E-02 0.000E+00

     total cpu time spent up to now is     3022.5 secs

     total energy              =   -5386.59936267 Ry
     estimated scf accuracy    <       0.00000290 Ry

     iteration # 27     ecut=    60.00 Ry     beta= 0.30
     Davidson diagonalization with overlap
     ethr =  5.16E-10,  avg # of iterations =  1.0

     negative rho (up, down):  3.524E-02 0.000E+00

     total cpu time spent up to now is     3029.4 secs

     total energy              =   -5386.59936270 Ry
     estimated scf accuracy    <       0.00000315 Ry

     iteration # 28     ecut=    60.00 Ry     beta= 0.30
     Davidson diagonalization with overlap
     ethr =  5.16E-10,  avg # of iterations =  1.0

     negative rho (up, down):  3.524E-02 0.000E+00

     total cpu time spent up to now is     3036.0 secs

     total energy              =   -5386.59936279 Ry
     estimated scf accuracy    <       0.00000031 Ry

     iteration # 29     ecut=    60.00 Ry     beta= 0.30
     Davidson diagonalization with overlap
     ethr =  5.59E-11,  avg # of iterations =  2.0

     negative rho (up, down):  3.524E-02 0.000E+00

     total cpu time spent up to now is     3043.0 secs

     total energy              =   -5386.59936279 Ry
     estimated scf accuracy    <       0.00000039 Ry

     iteration # 30     ecut=    60.00 Ry     beta= 0.30
     Davidson diagonalization with overlap
     ethr =  5.59E-11,  avg # of iterations =  2.0

     negative rho (up, down):  3.524E-02 0.000E+00

     total cpu time spent up to now is     3050.5 secs

     total energy              =   -5386.59936279 Ry
     estimated scf accuracy    <       0.00000036 Ry

     iteration # 31     ecut=    60.00 Ry     beta= 0.30
     Davidson diagonalization with overlap
     ethr =  5.59E-11,  avg # of iterations =  1.0

     negative rho (up, down):  3.524E-02 0.000E+00

     total cpu time spent up to now is     3057.0 secs

     total energy              =   -5386.59936280 Ry
     estimated scf accuracy    <       0.00000021 Ry

     iteration # 32     ecut=    60.00 Ry     beta= 0.30
     Davidson diagonalization with overlap
     ethr =  3.66E-11,  avg # of iterations =  1.0

     negative rho (up, down):  3.524E-02 0.000E+00

     total cpu time spent up to now is     3063.8 secs

     total energy              =   -5386.59936281 Ry
     estimated scf accuracy    <       0.00000005 Ry

     iteration # 33     ecut=    60.00 Ry     beta= 0.30
     Davidson diagonalization with overlap
     ethr =  8.77E-12,  avg # of iterations =  2.0

     negative rho (up, down):  3.524E-02 0.000E+00

     total cpu time spent up to now is     3071.2 secs

     total energy              =   -5386.59936281 Ry
     estimated scf accuracy    <       0.00000006 Ry

     iteration # 34     ecut=    60.00 Ry     beta= 0.30
     Davidson diagonalization with overlap
     ethr =  8.77E-12,  avg # of iterations =  1.0

     negative rho (up, down):  3.524E-02 0.000E+00

     total cpu time spent up to now is     3078.3 secs

     total energy              =   -5386.59936281 Ry
     estimated scf accuracy    <       0.00000009 Ry

     iteration # 35     ecut=    60.00 Ry     beta= 0.30
     Davidson diagonalization with overlap
     ethr =  8.77E-12,  avg # of iterations =  2.0

     negative rho (up, down):  3.524E-02 0.000E+00

     total cpu time spent up to now is     3085.7 secs

     total energy              =   -5386.59936281 Ry
     estimated scf accuracy    <       0.00000020 Ry

     iteration # 36     ecut=    60.00 Ry     beta= 0.30
     Davidson diagonalization with overlap
     ethr =  8.77E-12,  avg # of iterations =  2.0

     negative rho (up, down):  3.524E-02 0.000E+00

     total cpu time spent up to now is     3092.6 secs

     total energy              =   -5386.59936281 Ry
     estimated scf accuracy    <       0.00000010 Ry

     iteration # 37     ecut=    60.00 Ry     beta= 0.30
     Davidson diagonalization with overlap
     ethr =  8.77E-12,  avg # of iterations =  2.0

     negative rho (up, down):  3.524E-02 0.000E+00

     total cpu time spent up to now is     3099.6 secs

     total energy              =   -5386.59936281 Ry
     estimated scf accuracy    <       0.00000016 Ry

     iteration # 38     ecut=    60.00 Ry     beta= 0.30
     Davidson diagonalization with overlap
     ethr =  8.77E-12,  avg # of iterations =  1.0

     negative rho (up, down):  3.524E-02 0.000E+00

     total cpu time spent up to now is     3106.3 secs

     total energy              =   -5386.59936281 Ry
     estimated scf accuracy    <       0.00000003 Ry

     iteration # 39     ecut=    60.00 Ry     beta= 0.30
     Davidson diagonalization with overlap
     ethr =  4.72E-12,  avg # of iterations =  2.0

     negative rho (up, down):  3.524E-02 0.000E+00

     total cpu time spent up to now is     3114.0 secs

     total energy              =   -5386.59936281 Ry
     estimated scf accuracy    <       0.00000002 Ry

     iteration # 40     ecut=    60.00 Ry     beta= 0.30
     Davidson diagonalization with overlap
     ethr =  3.70E-12,  avg # of iterations =  2.0

     negative rho (up, down):  3.524E-02 0.000E+00

     total cpu time spent up to now is     3121.3 secs

     total energy              =   -5386.59936282 Ry
     estimated scf accuracy    <       0.00000003 Ry

     iteration # 41     ecut=    60.00 Ry     beta= 0.30
     Davidson diagonalization with overlap
     ethr =  3.70E-12,  avg # of iterations =  1.0

     negative rho (up, down):  3.524E-02 0.000E+00

     total cpu time spent up to now is     3128.2 secs

     total energy              =   -5386.59936281 Ry
     estimated scf accuracy    <       0.00000003 Ry

     iteration # 42     ecut=    60.00 Ry     beta= 0.30
     Davidson diagonalization with overlap
     ethr =  3.70E-12,  avg # of iterations =  1.0

     negative rho (up, down):  3.524E-02 0.000E+00

     total cpu time spent up to now is     3135.1 secs

     total energy              =   -5386.59936281 Ry
     estimated scf accuracy    <       0.00000001 Ry

     iteration # 43     ecut=    60.00 Ry     beta= 0.30
     Davidson diagonalization with overlap
     ethr =  1.93E-12,  avg # of iterations =  1.0

     negative rho (up, down):  3.524E-02 0.000E+00

     total cpu time spent up to now is     3141.8 secs

     total energy              =   -5386.59936281 Ry
     estimated scf accuracy    <          5.3E-09 Ry

     iteration # 44     ecut=    60.00 Ry     beta= 0.30
     Davidson diagonalization with overlap
     ethr =  9.53E-13,  avg # of iterations =  1.0

     negative rho (up, down):  3.524E-02 0.000E+00

     total cpu time spent up to now is     3148.7 secs

     total energy              =   -5386.59936281 Ry
     estimated scf accuracy    <          3.0E-09 Ry

     iteration # 45     ecut=    60.00 Ry     beta= 0.30
     Davidson diagonalization with overlap
     ethr =  5.30E-13,  avg # of iterations =  1.0

     negative rho (up, down):  3.524E-02 0.000E+00

     total cpu time spent up to now is     3155.5 secs

     total energy              =   -5386.59936282 Ry
     estimated scf accuracy    <          4.1E-09 Ry

     iteration # 46     ecut=    60.00 Ry     beta= 0.30
     Davidson diagonalization with overlap
     ethr =  5.30E-13,  avg # of iterations =  1.0

     negative rho (up, down):  3.524E-02 0.000E+00

     total cpu time spent up to now is     3162.4 secs

     total energy              =   -5386.59936281 Ry
     estimated scf accuracy    <          4.0E-09 Ry

     iteration # 47     ecut=    60.00 Ry     beta= 0.30
     Davidson diagonalization with overlap
     ethr =  5.30E-13,  avg # of iterations =  1.0

     negative rho (up, down):  3.524E-02 0.000E+00

     total cpu time spent up to now is     3169.5 secs

     total energy              =   -5386.59936282 Ry
     estimated scf accuracy    <          5.6E-09 Ry

     iteration # 48     ecut=    60.00 Ry     beta= 0.30
     Davidson diagonalization with overlap
     ethr =  5.30E-13,  avg # of iterations =  1.0

     negative rho (up, down):  3.524E-02 0.000E+00

     total cpu time spent up to now is     3176.0 secs

     End of self-consistent calculation

          k = 0.0000 0.0000 0.0000 ( 46961 PWs)   bands (ev):

   -69.5400 -69.5159 -69.5024 -69.4975 -69.4545 -69.4343 -69.4260 -69.4169
   -69.4099 -69.3790 -69.2255 -62.0432 -62.0321 -62.0167 -61.9789 -61.9060
   -61.8966 -61.8958 -61.8585 -61.7724 -61.7458 -54.2829 -54.2574 -54.2548
   -54.0971 -53.9471 -53.9423 -53.9172 -53.9079 -53.8881 -53.8489 -53.6249
   -41.0141 -40.9549 -40.9445 -40.9276 -40.9184 -40.9030 -40.9005 -40.8797
   -40.8711 -40.8620 -40.8584 -40.8461 -40.8396 -40.8373 -40.8274 -40.8179
   -40.8034 -40.7936 -40.7882 -40.7836 -40.7801 -40.7603 -40.7592 -40.7412
   -40.7289 -40.7237 -40.7116 -40.6970 -40.6829 -40.6628 -40.6361 -40.5860
   -40.4482 -36.0374 -35.9894 -35.9611 -35.9496 -35.9353 -35.9242 -35.9032
   -35.8744 -35.8506 -35.8449 -35.8206 -35.8151 -35.8112 -35.8031 -35.7900
   -35.7805 -35.7763 -35.7698 -35.7501 -35.7489 -35.7333 -35.7262 -35.7048
   -35.6903 -35.6699 -35.6633 -35.6603 -35.6106 -35.5498 -35.4794 -30.7243
   -30.6833 -30.6643 -30.5393 -30.5314 -30.5147 -30.5086 -30.5060 -30.5038
   -30.4606 -30.4313 -30.4137 -30.3857 -30.3690 -30.3358 -30.3324 -30.3147
   -30.3096 -30.2993 -30.2901 -30.2668 -30.2465 -30.2333 -30.1927 -30.1722
   -30.1679 -30.1402 -30.1175 -30.1112 -30.0553 -29.9997 -29.9490 -29.9028
   -21.8270 -16.1766 -10.7092  -9.6421  -9.2330  -9.1561  -9.0576  -8.9197
    -8.5754  -8.3565  -8.3270  -8.2604  -8.2055  -8.1222  -8.0645  -7.9320
    -7.9083  -7.7772  -7.6823  -7.6183  -7.5297  -7.4939  -7.4298  -7.4141
    -7.3774  -7.3528  -7.2452  -7.2166  -7.1337  -6.9846  -6.8432  -6.7740
    -6.7557  -6.6309  -6.4511  -4.3975  -4.3771  -3.9953  -3.9122  -3.8574
    -3.7912  -3.6599  -3.2371  -2.9337  -2.8168  -2.7353  -2.6843  -2.6004
    -2.5605  -2.4489  -2.4409  -2.3793  -2.3182  -2.3101  -2.1483  -2.0590
    -2.0163  -1.9349  -1.7872  -1.7724  -1.7457  -1.7135  -1.5927  -1.5298
    -1.4825  -1.4390  -1.4146  -1.3713  -1.3433  -1.3257  -1.3139  -1.2960
    -1.2824  -1.2684  -1.2396  -1.2317  -1.1927  -1.1688  -1.1509  -1.0510
    -1.0380  -0.9975  -0.9697  -0.9428  -0.9192  -0.8594  -0.8420  -0.8010
    -0.7667  -0.7456  -0.6900  -0.6665  -0.6396  -0.6299  -0.6175  -0.6051
    -0.5781  -0.5615  -0.5351  -0.5171  -0.5017  -0.4474  -0.3487  -0.3207
    -0.3039  -0.2355  -0.1795  -0.1388  -0.1205  -0.0637  -0.0031   0.0348
     0.0761   0.0975   0.1326   0.1917   0.2907   0.2928   0.3143   0.5091
     0.5327   0.6798   0.6965   0.7610   0.8136   0.9425   0.9713   1.0328
     1.1352   1.1605   1.2661   1.3061   1.3492   1.4521   1.4908   1.5368
     1.5612   1.7783   1.8327   1.8780   1.8910   1.9305   2.1174   2.1385
     2.2331   2.5470   2.6634   2.6699   2.7749   2.8440   2.9487   2.9866
     3.0104   3.0410   3.1189   3.1438   3.1728   3.2064   3.2405   3.2629
     3.2891   3.3261   3.3477   3.3896   3.4096   3.4156   3.4624   3.4802
     3.5095   3.5361   3.5864   3.6085   3.6603   3.7116   3.7379   3.7641
     3.7902   3.8390   3.8883   3.9139   3.9797   4.0002   4.0231   4.0352
     4.0877   4.1084   4.1478   4.1691   4.2013   4.2307   4.2595   4.2759
     4.2957   4.3318   4.3893   4.4275   4.4525   4.4905   4.5483   4.5658
     4.6113   4.6226   4.6650   4.7430   4.7606   4.8203   4.8565   4.8805
     4.9072

     the Fermi energy is     3.0123 ev

!    total energy              =   -5386.59936281 Ry
     estimated scf accuracy    <          8.4E-10 Ry
     smearing contrib. (-TS)   =      -0.03101402 Ry
     internal energy E=F+TS    =   -5386.56834879 Ry

     The total energy is F=E-TS. E is the sum of the following terms:
     one-electron contribution =  -55972.33887434 Ry
     hartree contribution      =   28019.84653000 Ry
     xc contribution           =    -807.42940723 Ry
     ewald contribution        =   23596.18448635 Ry
     one-center paw contrib.   =    -222.83108358 Ry

     convergence has been achieved in  48 iterations

     negative rho (up, down):  3.524E-02 0.000E+00

     Forces acting on atoms (cartesian axes, Ry/au):

     atom    1 type  1   force =     0.00148003   -0.00396920    0.00515659
     atom    2 type  1   force =    -0.00290996   -0.00800187    0.00403928
     atom    3 type  1   force =    -0.01018350    0.02995628   -0.00611436
     atom    4 type  1   force =     0.00039471   -0.01542014    0.02910274
     atom    5 type  1   force =    -0.00301741    0.01127311   -0.00163619
     atom    6 type  1   force =     0.00816164   -0.00123794    0.02767543
     atom    7 type  1   force =    -0.00077780   -0.02782155   -0.02029407
     atom    8 type  1   force =     0.01155025    0.02592336    0.00511004
     atom    9 type  1   force =    -0.01180424   -0.00605627   -0.03305340
     atom   10 type  1   force =    -0.00173409   -0.00652972    0.00313951
     atom   11 type  1   force =     0.00383887   -0.00256920   -0.00347529
     atom   12 type  2   force =     0.00379025   -0.00381770    0.00806784
     atom   13 type  2   force =    -0.00029399   -0.00433709    0.00178515
     atom   14 type  2   force =     0.02336012   -0.00734623    0.01936815
     atom   15 type  2   force =    -0.01155347    0.00000209    0.11399626
     atom   16 type  2   force =     0.00480013    0.00088229    0.09584332
     atom   17 type  2   force =    -0.04408237   -0.01770084   -0.02902548
     atom   18 type  2   force =     0.00863056    0.01918389   -0.03546800
     atom   19 type  2   force =    -0.00819297    0.01208265   -0.03274317
     atom   20 type  2   force =    -0.00152165   -0.01109744    0.00296738
     atom   21 type  2   force =     0.00843762    0.01630238   -0.00448308
     atom   22 type  3   force =     0.00127043    0.00143794   -0.00504228
     atom   23 type  3   force =    -0.02393197   -0.01202277   -0.00692684
     atom   24 type  3   force =     0.01776360    0.01555425   -0.01565406
     atom   25 type  3   force =     0.01616632   -0.01276756    0.06460239
     atom   26 type  3   force =    -0.00424135    0.01162213    0.12455694
     atom   27 type  3   force =     0.03703148   -0.00322338   -0.00224175
     atom   28 type  3   force =    -0.00641555    0.00194792    0.04156197
     atom   29 type  3   force =    -0.00813487   -0.00476006   -0.01384587
     atom   30 type  3   force =     0.01374070   -0.00371811   -0.01144650
     atom   31 type  3   force =     0.00071765   -0.00138807   -0.01014889
     atom   32 type  3   force =    -0.00514521   -0.00175363   -0.00872110
     atom   33 type  4   force =    -0.00012648   -0.00782527   -0.03359919
     atom   34 type  4   force =     0.00958215    0.01260453   -0.00367318
     atom   35 type  4   force =    -0.00207724   -0.01833987   -0.02326234
     atom   36 type  4   force =     0.00096488    0.00991544   -0.03580264
     atom   37 type  4   force =     0.00311558    0.00369489    0.02600435
     atom   38 type  4   force =     0.00435717   -0.01455535    0.01990391
     atom   39 type  4   force =     0.00707084   -0.00631753    0.02721251
     atom   40 type  4   force =     0.00312449   -0.00419408    0.00474463
     atom   41 type  4   force =    -0.00135405    0.00221600    0.00645668
     atom   42 type  4   force =    -0.00024118    0.00224400    0.00012966
     atom   43 type  4   force =    -0.00578779    0.00305701    0.00186309
     atom   44 type  4   force =    -0.00179077    0.00481124    0.00457184
     atom   45 type  4   force =     0.00637557    0.00711817   -0.04115060
     atom   46 type  4   force =     0.00268740   -0.00003048   -0.04297308
     atom   47 type  4   force =    -0.00706087   -0.00008377   -0.02828532
     atom   48 type  4   force =    -0.01290717   -0.00978579   -0.02231702
     atom   49 type  4   force =    -0.00863093    0.00928348    0.01029870
     atom   50 type  4   force =    -0.00412162    0.00535487    0.01114104
     atom   51 type  4   force =     0.00137743    0.00294039    0.00338609
     atom   52 type  4   force =    -0.00009223    0.01055883    0.00251534
     atom   53 type  4   force =    -0.00213893    0.00312789   -0.03266693
     atom   54 type  4   force =    -0.00630280    0.00413082   -0.04703395
     atom   55 type  4   force =    -0.00142604    0.00654151   -0.03007670
     atom   56 type  4   force =    -0.00216545   -0.00764072   -0.03219624
     atom   57 type  4   force =    -0.01560895    0.00816317   -0.02934681
     atom   58 type  4   force =    -0.00946621   -0.00554810   -0.03924959
     atom   59 type  4   force =     0.01419911    0.01127384   -0.03225768
     atom   60 type  4   force =     0.00212528   -0.01032745   -0.02211587
     atom   61 type  4   force =     0.01054908   -0.00153080    0.01969421
     atom   62 type  4   force =     0.00254538   -0.00574429    0.02346856
     atom   63 type  4   force =    -0.00424681   -0.00385939    0.00924751
     atom   64 type  4   force =     0.00014752   -0.00470700    0.02779647
     atom   65 type  4   force =    -0.00147558    0.00275272   -0.01650514
     atom   66 type  5   force =     0.00011136   -0.00094189    0.01312685
     atom   67 type  5   force =    -0.01187908    0.00749879    0.00338687
     atom   68 type  6   force =     0.01337300   -0.00648533   -0.00908871

     Total force =     0.050834     Total SCF correction =     0.000049
     Energy error            =      2.0E-03 Ry
     Gradient error          =      1.7E-02 Ry/Bohr

     number of scf cycles    =   8
     number of bfgs steps    =   7

     energy             old  =   -5386.5973821280 Ry
     energy             new  =   -5386.5993628149 Ry

     CASE: energy            _new < energy            _old

     new trust radius        =       0.0583428248 bohr
     new conv_thr            =       0.0000000017 Ry


ATOMIC_POSITIONS (angstrom)
Ti               0.0349987118        0.0357013490       16.1718347829
Ti               0.0291331002        8.3621570543       11.5803477355    0   0   0
Ti               2.0975368417        4.1651924041       13.6995846818    0   0   0
Ti               8.3795041056        2.0957563981        9.4724378689    0   0   0
Ti               8.3750099733        6.2687152092        9.4933225157    0   0   0
Ti               4.2170671874        6.2898439467        9.4911460380    0   0   0
Ti               8.3706959315        2.0992468883       13.7196199333    0   0   0
Ti               8.3814371399        6.2587905921       13.6914936631    0   0   0
Ti               4.2074509867        6.2621252961       13.6953624844    0   0   0
Ti               2.1260570955        6.2153463862       15.8206433815
Ti               6.3160828174        6.2563263718       15.7726973100
V                8.3820671193        4.0315164651       15.7013392608
V                4.2585542291        4.0823146935       15.6444445008
V                4.1453105473        4.2119457891       11.5975026988    0   0   0
V                2.1879867013        0.0520231596        9.5054883674    0   0   0
V                2.1522427348        4.1319303501        9.4904675789    0   0   0
V                2.0919720210       -0.0034525136       13.6809547049    0   0   0
V                6.2957223951        4.1813414611       13.7896152224    0   0   0
V                4.2104512702        2.0785028673       13.6089365586    0   0   0
V                2.1048639148        6.2714192178       11.5723879270    0   0   0
V                6.3158808164        6.1438819511       11.5700667150    0   0   0
Cr               4.2209069054       -0.0432337109       15.5444252714
Cr               0.1179128009        4.1786640750       11.5195623927    0   0   0
Cr               4.1681598842        8.2577799257       11.6615352591    0   0   0
Cr               6.1999882077        0.1106418811        9.6948923906    0   0   0
Cr               6.2007452456        4.0563627707        9.3394942948    0   0   0
Cr               6.3039559766        8.3200573949       13.5345114413    0   0   0
Cr               4.2149984025        2.0754774019        9.7444374941    0   0   0
Cr               2.3005839209        2.0446467948       15.5677345591
Cr               6.1607220318        1.9738891345       15.5465340270
Cr               2.0054620409        2.1149661174       11.6192682974    0   0   0
Cr               6.3992485267        2.2488278238       11.6549867199    0   0   0
C                8.3671464633        0.0123762133        9.4921945368    0   0   0
C                8.3685510870        4.1683341954        9.4949958325    0   0   0
C                4.2233794382        0.0660683478        9.5137772640    0   0   0
C                4.2071394793        4.1170355077        9.4900603783    0   0   0
C                8.3753352139       -0.0047460034       13.6879749419    0   0   0
C                8.3555577743        4.1752016178       13.6998947017    0   0   0
C                4.2131653834        0.0054873094       13.6688163572    0   0   0
C                4.2220181648        4.1373219388       13.6924183861    0   0   0
C                2.1876171533        0.1178744168       15.8708499868
C                2.1073618654        4.1127743329       15.9577149089
C                6.2055442488        0.0998977933       15.8963118457
C                6.2707986402        4.1592450716       15.9091262080
C                2.1521326937        0.0175132539       11.5903255372    0   0   0
C                2.1078429860        4.1683083653       11.5671868517    0   0   0
C                6.2417937451        0.0188099573       11.6002801854    0   0   0
C                6.3283074126        4.1569384024       11.5682471185    0   0   0
C                8.3053360832        2.1642131196       15.7886085959
C                8.3743763650        6.3513666471       15.7635752272
C                4.1992466653        2.0682827488       15.7866962787
C                4.2139056527        6.3781816857       15.8203521652
C                0.0147673152        2.1438801594       11.5939557114    0   0   0
C                0.0200697416        6.2277703895       11.5821679336    0   0   0
C                4.2182428542        2.0594943016       11.6100232202    0   0   0
C                4.2117703951        6.2583221129       11.5919858628    0   0   0
C                2.1713130363        2.0860319016        9.4919958919    0   0   0
C                2.1164500536        6.2753611976        9.5156635851    0   0   0
C                6.2203151227        2.0809934926        9.4961719556    0   0   0
C                6.2861737462        6.2618311600        9.5257047400    0   0   0
C                2.1349207790        2.0551228178       13.6855329086    0   0   0
C                2.1043015435        6.2915359703       13.6724452320    0   0   0
C                6.2612712230        2.0678980813       13.6766563617    0   0   0
C                6.2981398968        6.2588382292       13.6653030130    0   0   0
C                2.1589530607        6.0809533762       18.0263108982
O                2.2125048169        5.9199308715       19.1486874976
O                8.3480106033        0.0629739306       18.0177316534
H                7.6489315772        0.4550178071       18.5650944282



     Writing config-only to output data dir ./tmp/hec3_CrTiV_f100_COOH_ads.save/ :
     XML data file
     NEW-OLD atomic charge density approx. for the potential

     Check: negative core charge=   -0.000005

     negative rho (up, down):  3.524E-02 0.000E+00

     total cpu time spent up to now is     3188.3 secs

     Self-consistent Calculation

     iteration #  1     ecut=    60.00 Ry     beta= 0.30
     Davidson diagonalization with overlap
     ethr =  1.00E-06,  avg # of iterations =  7.0

     negative rho (up, down):  3.520E-02 0.000E+00

     total cpu time spent up to now is     3199.7 secs

     total energy              =   -5386.59958242 Ry
     estimated scf accuracy    <       0.00952274 Ry

     iteration #  2     ecut=    60.00 Ry     beta= 0.30
     Davidson diagonalization with overlap
     ethr =  1.70E-06,  avg # of iterations =  7.0

     negative rho (up, down):  3.520E-02 0.000E+00

     total cpu time spent up to now is     3209.4 secs

     total energy              =   -5386.59168008 Ry
     estimated scf accuracy    <       0.30995923 Ry

     iteration #  3     ecut=    60.00 Ry     beta= 0.30
     Davidson diagonalization with overlap
     ethr =  1.70E-06,  avg # of iterations = 15.0

     negative rho (up, down):  3.522E-02 0.000E+00

     total cpu time spent up to now is     3221.6 secs

     total energy              =   -5386.59667642 Ry
     estimated scf accuracy    <       0.26275126 Ry

     iteration #  4     ecut=    60.00 Ry     beta= 0.30
     Davidson diagonalization with overlap
     c_bands:  1 eigenvalues not converged
     ethr =  1.70E-06,  avg # of iterations = 20.0

     negative rho (up, down):  3.522E-02 0.000E+00

     total cpu time spent up to now is     3235.6 secs

     total energy              =   -5386.60076195 Ry
     estimated scf accuracy    <       0.03142208 Ry

     iteration #  5     ecut=    60.00 Ry     beta= 0.30
     Davidson diagonalization with overlap
     ethr =  1.70E-06,  avg # of iterations =  2.0

     negative rho (up, down):  3.523E-02 0.000E+00

     total cpu time spent up to now is     3242.8 secs

     total energy              =   -5386.60139641 Ry
     estimated scf accuracy    <       0.01095401 Ry

     iteration #  6     ecut=    60.00 Ry     beta= 0.30
     Davidson diagonalization with overlap
     ethr =  1.70E-06,  avg # of iterations =  2.0

     negative rho (up, down):  3.522E-02 0.000E+00

     total cpu time spent up to now is     3250.0 secs

     total energy              =   -5386.60150085 Ry
     estimated scf accuracy    <       0.01225054 Ry

     iteration #  7     ecut=    60.00 Ry     beta= 0.30
     Davidson diagonalization with overlap
     ethr =  1.70E-06,  avg # of iterations =  1.0

     negative rho (up, down):  3.522E-02 0.000E+00

     total cpu time spent up to now is     3256.5 secs

     total energy              =   -5386.60169155 Ry
     estimated scf accuracy    <       0.00791954 Ry

     iteration #  8     ecut=    60.00 Ry     beta= 0.30
     Davidson diagonalization with overlap
     ethr =  1.41E-06,  avg # of iterations =  1.0

     negative rho (up, down):  3.522E-02 0.000E+00

     total cpu time spent up to now is     3263.3 secs

     total energy              =   -5386.60180760 Ry
     estimated scf accuracy    <       0.00593993 Ry

     iteration #  9     ecut=    60.00 Ry     beta= 0.30
     Davidson diagonalization with overlap
     ethr =  1.06E-06,  avg # of iterations =  1.0

     negative rho (up, down):  3.522E-02 0.000E+00

     total cpu time spent up to now is     3270.3 secs

     total energy              =   -5386.60195575 Ry
     estimated scf accuracy    <       0.00225945 Ry

     iteration # 10     ecut=    60.00 Ry     beta= 0.30
     Davidson diagonalization with overlap
     ethr =  4.03E-07,  avg # of iterations =  1.0

     negative rho (up, down):  3.522E-02 0.000E+00

     total cpu time spent up to now is     3277.2 secs

     total energy              =   -5386.60200951 Ry
     estimated scf accuracy    <       0.00056249 Ry

     iteration # 11     ecut=    60.00 Ry     beta= 0.30
     Davidson diagonalization with overlap
     ethr =  1.00E-07,  avg # of iterations =  2.0

     negative rho (up, down):  3.522E-02 0.000E+00

     total cpu time spent up to now is     3284.7 secs

     total energy              =   -5386.60201549 Ry
     estimated scf accuracy    <       0.00089579 Ry

     iteration # 12     ecut=    60.00 Ry     beta= 0.30
     Davidson diagonalization with overlap
     ethr =  1.00E-07,  avg # of iterations =  1.0

     negative rho (up, down):  3.522E-02 0.000E+00

     total cpu time spent up to now is     3291.5 secs

     total energy              =   -5386.60203990 Ry
     estimated scf accuracy    <       0.00035462 Ry

     iteration # 13     ecut=    60.00 Ry     beta= 0.30
     Davidson diagonalization with overlap
     ethr =  6.32E-08,  avg # of iterations =  2.0

     negative rho (up, down):  3.522E-02 0.000E+00

     total cpu time spent up to now is     3298.4 secs

     total energy              =   -5386.60202000 Ry
     estimated scf accuracy    <       0.00213181 Ry

     iteration # 14     ecut=    60.00 Ry     beta= 0.30
     Davidson diagonalization with overlap
     ethr =  6.32E-08,  avg # of iterations =  1.0

     negative rho (up, down):  3.522E-02 0.000E+00

     total cpu time spent up to now is     3305.1 secs

     total energy              =   -5386.60205240 Ry
     estimated scf accuracy    <       0.00055395 Ry

     iteration # 15     ecut=    60.00 Ry     beta= 0.30
     Davidson diagonalization with overlap
     ethr =  6.32E-08,  avg # of iterations =  1.0

     negative rho (up, down):  3.522E-02 0.000E+00

     total cpu time spent up to now is     3311.7 secs

     total energy              =   -5386.60206290 Ry
     estimated scf accuracy    <       0.00005472 Ry

     iteration # 16     ecut=    60.00 Ry     beta= 0.30
     Davidson diagonalization with overlap
     ethr =  9.75E-09,  avg # of iterations =  2.0

     negative rho (up, down):  3.522E-02 0.000E+00

     total cpu time spent up to now is     3318.7 secs

     total energy              =   -5386.60206334 Ry
     estimated scf accuracy    <       0.00012805 Ry

     iteration # 17     ecut=    60.00 Ry     beta= 0.30
     Davidson diagonalization with overlap
     ethr =  9.75E-09,  avg # of iterations =  1.0

     negative rho (up, down):  3.522E-02 0.000E+00

     total cpu time spent up to now is     3325.4 secs

     total energy              =   -5386.60206628 Ry
     estimated scf accuracy    <       0.00003331 Ry

     iteration # 18     ecut=    60.00 Ry     beta= 0.30
     Davidson diagonalization with overlap
     ethr =  5.94E-09,  avg # of iterations =  2.0

     negative rho (up, down):  3.522E-02 0.000E+00

     total cpu time spent up to now is     3332.6 secs

     total energy              =   -5386.60206655 Ry
     estimated scf accuracy    <       0.00004030 Ry

     iteration # 19     ecut=    60.00 Ry     beta= 0.30
     Davidson diagonalization with overlap
     ethr =  5.94E-09,  avg # of iterations =  1.0

     negative rho (up, down):  3.522E-02 0.000E+00

     total cpu time spent up to now is     3339.5 secs

     total energy              =   -5386.60206672 Ry
     estimated scf accuracy    <       0.00004101 Ry

     iteration # 20     ecut=    60.00 Ry     beta= 0.30
     Davidson diagonalization with overlap
     ethr =  5.94E-09,  avg # of iterations =  1.0

     negative rho (up, down):  3.522E-02 0.000E+00

     total cpu time spent up to now is     3345.9 secs

     total energy              =   -5386.60206738 Ry
     estimated scf accuracy    <       0.00001675 Ry

     iteration # 21     ecut=    60.00 Ry     beta= 0.30
     Davidson diagonalization with overlap
     ethr =  2.99E-09,  avg # of iterations =  2.0

     negative rho (up, down):  3.522E-02 0.000E+00

     total cpu time spent up to now is     3353.1 secs

     total energy              =   -5386.60206764 Ry
     estimated scf accuracy    <       0.00001809 Ry

     iteration # 22     ecut=    60.00 Ry     beta= 0.30
     Davidson diagonalization with overlap
     ethr =  2.99E-09,  avg # of iterations =  1.0

     negative rho (up, down):  3.522E-02 0.000E+00

     total cpu time spent up to now is     3359.8 secs

     total energy              =   -5386.60206831 Ry
     estimated scf accuracy    <       0.00000545 Ry

     iteration # 23     ecut=    60.00 Ry     beta= 0.30
     Davidson diagonalization with overlap
     ethr =  9.72E-10,  avg # of iterations =  2.0

     negative rho (up, down):  3.522E-02 0.000E+00

     total cpu time spent up to now is     3366.8 secs

     total energy              =   -5386.60206817 Ry
     estimated scf accuracy    <       0.00000827 Ry

     iteration # 24     ecut=    60.00 Ry     beta= 0.30
     Davidson diagonalization with overlap
     ethr =  9.72E-10,  avg # of iterations =  2.0

     negative rho (up, down):  3.522E-02 0.000E+00

     total cpu time spent up to now is     3374.0 secs

     total energy              =   -5386.60206771 Ry
     estimated scf accuracy    <       0.00005557 Ry

     iteration # 25     ecut=    60.00 Ry     beta= 0.30
     Davidson diagonalization with overlap
     ethr =  9.72E-10,  avg # of iterations =  2.0

     negative rho (up, down):  3.522E-02 0.000E+00

     total cpu time spent up to now is     3381.6 secs

     total energy              =   -5386.60206828 Ry
     estimated scf accuracy    <       0.00000613 Ry

     iteration # 26     ecut=    60.00 Ry     beta= 0.30
     Davidson diagonalization with overlap
     ethr =  9.72E-10,  avg # of iterations =  2.0

     negative rho (up, down):  3.522E-02 0.000E+00

     total cpu time spent up to now is     3389.1 secs

     total energy              =   -5386.60206818 Ry
     estimated scf accuracy    <       0.00001334 Ry

     iteration # 27     ecut=    60.00 Ry     beta= 0.30
     Davidson diagonalization with overlap
     ethr =  9.72E-10,  avg # of iterations =  1.0

     negative rho (up, down):  3.522E-02 0.000E+00

     total cpu time spent up to now is     3395.9 secs

     total energy              =   -5386.60206852 Ry
     estimated scf accuracy    <       0.00000394 Ry

     iteration # 28     ecut=    60.00 Ry     beta= 0.30
     Davidson diagonalization with overlap
     ethr =  7.03E-10,  avg # of iterations =  1.0

     negative rho (up, down):  3.522E-02 0.000E+00

     total cpu time spent up to now is     3402.8 secs

     total energy              =   -5386.60206863 Ry
     estimated scf accuracy    <       0.00000169 Ry

     iteration # 29     ecut=    60.00 Ry     beta= 0.30
     Davidson diagonalization with overlap
     ethr =  3.01E-10,  avg # of iterations =  1.0

     negative rho (up, down):  3.522E-02 0.000E+00

     total cpu time spent up to now is     3409.4 secs

     total energy              =   -5386.60206864 Ry
     estimated scf accuracy    <       0.00000170 Ry

     iteration # 30     ecut=    60.00 Ry     beta= 0.30
     Davidson diagonalization with overlap
     ethr =  3.01E-10,  avg # of iterations =  1.0

     negative rho (up, down):  3.522E-02 0.000E+00

     total cpu time spent up to now is     3416.1 secs

     total energy              =   -5386.60206867 Ry
     estimated scf accuracy    <       0.00000115 Ry

     iteration # 31     ecut=    60.00 Ry     beta= 0.30
     Davidson diagonalization with overlap
     ethr =  2.04E-10,  avg # of iterations =  1.0

     negative rho (up, down):  3.522E-02 0.000E+00

     total cpu time spent up to now is     3422.9 secs

     total energy              =   -5386.60206867 Ry
     estimated scf accuracy    <       0.00000125 Ry

     iteration # 32     ecut=    60.00 Ry     beta= 0.30
     Davidson diagonalization with overlap
     ethr =  2.04E-10,  avg # of iterations =  1.0

     negative rho (up, down):  3.522E-02 0.000E+00

     total cpu time spent up to now is     3429.5 secs

     total energy              =   -5386.60206871 Ry
     estimated scf accuracy    <       0.00000022 Ry

     iteration # 33     ecut=    60.00 Ry     beta= 0.30
     Davidson diagonalization with overlap
     ethr =  3.96E-11,  avg # of iterations =  1.0

     negative rho (up, down):  3.522E-02 0.000E+00

     total cpu time spent up to now is     3436.3 secs

     total energy              =   -5386.60206872 Ry
     estimated scf accuracy    <       0.00000014 Ry

     iteration # 34     ecut=    60.00 Ry     beta= 0.30
     Davidson diagonalization with overlap
     ethr =  2.42E-11,  avg # of iterations =  2.0

     negative rho (up, down):  3.522E-02 0.000E+00

     total cpu time spent up to now is     3443.9 secs

     total energy              =   -5386.60206871 Ry
     estimated scf accuracy    <       0.00000128 Ry

     iteration # 35     ecut=    60.00 Ry     beta= 0.30
     Davidson diagonalization with overlap
     ethr =  2.42E-11,  avg # of iterations =  1.0

     negative rho (up, down):  3.522E-02 0.000E+00

     total cpu time spent up to now is     3450.6 secs

     total energy              =   -5386.60206872 Ry
     estimated scf accuracy    <       0.00000023 Ry

     iteration # 36     ecut=    60.00 Ry     beta= 0.30
     Davidson diagonalization with overlap
     ethr =  2.42E-11,  avg # of iterations =  2.0

     negative rho (up, down):  3.522E-02 0.000E+00

     total cpu time spent up to now is     3457.8 secs

     total energy              =   -5386.60206871 Ry
     estimated scf accuracy    <       0.00000044 Ry

     iteration # 37     ecut=    60.00 Ry     beta= 0.30
     Davidson diagonalization with overlap
     ethr =  2.42E-11,  avg # of iterations =  2.0

     negative rho (up, down):  3.522E-02 0.000E+00

     total cpu time spent up to now is     3465.0 secs

     total energy              =   -5386.60206872 Ry
     estimated scf accuracy    <       0.00000036 Ry

     iteration # 38     ecut=    60.00 Ry     beta= 0.30
     Davidson diagonalization with overlap
     ethr =  2.42E-11,  avg # of iterations =  1.0

     negative rho (up, down):  3.522E-02 0.000E+00

     total cpu time spent up to now is     3472.1 secs

     total energy              =   -5386.60206873 Ry
     estimated scf accuracy    <       0.00000011 Ry

     iteration # 39     ecut=    60.00 Ry     beta= 0.30
     Davidson diagonalization with overlap
     ethr =  1.92E-11,  avg # of iterations =  1.0

     negative rho (up, down):  3.522E-02 0.000E+00

     total cpu time spent up to now is     3478.9 secs

     total energy              =   -5386.60206873 Ry
     estimated scf accuracy    <       0.00000010 Ry

     iteration # 40     ecut=    60.00 Ry     beta= 0.30
     Davidson diagonalization with overlap
     ethr =  1.73E-11,  avg # of iterations =  1.0

     negative rho (up, down):  3.522E-02 0.000E+00

     total cpu time spent up to now is     3485.9 secs

     total energy              =   -5386.60206873 Ry
     estimated scf accuracy    <       0.00000011 Ry

     iteration # 41     ecut=    60.00 Ry     beta= 0.30
     Davidson diagonalization with overlap
     ethr =  1.73E-11,  avg # of iterations =  1.0

     negative rho (up, down):  3.522E-02 0.000E+00

     total cpu time spent up to now is     3492.6 secs

     total energy              =   -5386.60206873 Ry
     estimated scf accuracy    <       0.00000007 Ry

     iteration # 42     ecut=    60.00 Ry     beta= 0.30
     Davidson diagonalization with overlap
     ethr =  1.30E-11,  avg # of iterations =  2.0

     negative rho (up, down):  3.522E-02 0.000E+00

     total cpu time spent up to now is     3499.7 secs

     total energy              =   -5386.60206873 Ry
     estimated scf accuracy    <       0.00000005 Ry

     iteration # 43     ecut=    60.00 Ry     beta= 0.30
     Davidson diagonalization with overlap
     ethr =  8.80E-12,  avg # of iterations =  1.0

     negative rho (up, down):  3.522E-02 0.000E+00

     total cpu time spent up to now is     3506.3 secs

     total energy              =   -5386.60206873 Ry
     estimated scf accuracy    <       0.00000001 Ry

     iteration # 44     ecut=    60.00 Ry     beta= 0.30
     Davidson diagonalization with overlap
     ethr =  2.48E-12,  avg # of iterations =  1.0

     negative rho (up, down):  3.522E-02 0.000E+00

     total cpu time spent up to now is     3513.1 secs

     total energy              =   -5386.60206873 Ry
     estimated scf accuracy    <       0.00000006 Ry

     iteration # 45     ecut=    60.00 Ry     beta= 0.30
     Davidson diagonalization with overlap
     ethr =  2.48E-12,  avg # of iterations =  1.0

     negative rho (up, down):  3.522E-02 0.000E+00

     total cpu time spent up to now is     3519.9 secs

     total energy              =   -5386.60206874 Ry
     estimated scf accuracy    <       0.00000001 Ry

     iteration # 46     ecut=    60.00 Ry     beta= 0.30
     Davidson diagonalization with overlap
     ethr =  2.02E-12,  avg # of iterations =  1.0

     negative rho (up, down):  3.522E-02 0.000E+00

     total cpu time spent up to now is     3526.6 secs

     total energy              =   -5386.60206874 Ry
     estimated scf accuracy    <       0.00000001 Ry

     iteration # 47     ecut=    60.00 Ry     beta= 0.30
     Davidson diagonalization with overlap
     ethr =  2.02E-12,  avg # of iterations =  2.0

     negative rho (up, down):  3.522E-02 0.000E+00

     total cpu time spent up to now is     3533.8 secs

     total energy              =   -5386.60206874 Ry
     estimated scf accuracy    <       0.00000002 Ry

     iteration # 48     ecut=    60.00 Ry     beta= 0.30
     Davidson diagonalization with overlap
     ethr =  2.02E-12,  avg # of iterations =  1.0

     negative rho (up, down):  3.522E-02 0.000E+00

     total cpu time spent up to now is     3540.1 secs

     total energy              =   -5386.60206874 Ry
     estimated scf accuracy    <          9.3E-09 Ry

     iteration # 49     ecut=    60.00 Ry     beta= 0.30
     Davidson diagonalization with overlap
     ethr =  1.66E-12,  avg # of iterations =  1.0

     negative rho (up, down):  3.522E-02 0.000E+00

     total cpu time spent up to now is     3546.9 secs

     total energy              =   -5386.60206873 Ry
     estimated scf accuracy    <          7.6E-09 Ry

     iteration # 50     ecut=    60.00 Ry     beta= 0.30
     Davidson diagonalization with overlap
     ethr =  1.36E-12,  avg # of iterations =  1.0

     negative rho (up, down):  3.522E-02 0.000E+00

     total cpu time spent up to now is     3553.8 secs

     total energy              =   -5386.60206874 Ry
     estimated scf accuracy    <          6.3E-09 Ry

     iteration # 51     ecut=    60.00 Ry     beta= 0.30
     Davidson diagonalization with overlap
     ethr =  1.12E-12,  avg # of iterations =  1.0

     negative rho (up, down):  3.522E-02 0.000E+00

     total cpu time spent up to now is     3560.3 secs

     total energy              =   -5386.60206874 Ry
     estimated scf accuracy    <          2.9E-09 Ry

     iteration # 52     ecut=    60.00 Ry     beta= 0.30
     Davidson diagonalization with overlap
     ethr =  5.09E-13,  avg # of iterations =  2.0

     negative rho (up, down):  3.522E-02 0.000E+00

     total cpu time spent up to now is     3567.7 secs

     total energy              =   -5386.60206874 Ry
     estimated scf accuracy    <          4.1E-09 Ry

     iteration # 53     ecut=    60.00 Ry     beta= 0.30
     Davidson diagonalization with overlap
     ethr =  5.09E-13,  avg # of iterations =  2.0

     negative rho (up, down):  3.522E-02 0.000E+00

     total cpu time spent up to now is     3574.9 secs

     total energy              =   -5386.60206874 Ry
     estimated scf accuracy    <          4.6E-09 Ry

     iteration # 54     ecut=    60.00 Ry     beta= 0.30
     Davidson diagonalization with overlap
     ethr =  5.09E-13,  avg # of iterations =  1.0

     negative rho (up, down):  3.522E-02 0.000E+00

     total cpu time spent up to now is     3581.5 secs

     total energy              =   -5386.60206874 Ry
     estimated scf accuracy    <          8.1E-09 Ry

     iteration # 55     ecut=    60.00 Ry     beta= 0.30
     Davidson diagonalization with overlap
     ethr =  5.09E-13,  avg # of iterations =  1.0

     negative rho (up, down):  3.522E-02 0.000E+00

     total cpu time spent up to now is     3588.1 secs

     End of self-consistent calculation

          k = 0.0000 0.0000 0.0000 ( 46961 PWs)   bands (ev):

   -69.5286 -69.5066 -69.4896 -69.4839 -69.4416 -69.4266 -69.4231 -69.4055
   -69.4023 -69.3794 -69.2137 -62.0337 -62.0218 -62.0044 -61.9671 -61.9099
   -61.8852 -61.8841 -61.8326 -61.7513 -61.7305 -54.2800 -54.2506 -54.2441
   -54.0895 -53.9448 -53.9392 -53.9291 -53.9100 -53.8900 -53.8252 -53.6471
   -41.0027 -40.9429 -40.9318 -40.9226 -40.9091 -40.9002 -40.8880 -40.8673
   -40.8624 -40.8564 -40.8489 -40.8383 -40.8346 -40.8266 -40.8210 -40.8127
   -40.7891 -40.7833 -40.7761 -40.7717 -40.7653 -40.7519 -40.7490 -40.7320
   -40.7316 -40.7105 -40.7005 -40.6953 -40.6783 -40.6507 -40.6378 -40.5741
   -40.4370 -36.0261 -35.9792 -35.9522 -35.9438 -35.9240 -35.9136 -35.8932
   -35.8625 -35.8392 -35.8340 -35.8117 -35.8062 -35.7994 -35.7917 -35.7832
   -35.7738 -35.7667 -35.7614 -35.7375 -35.7330 -35.7258 -35.7218 -35.6862
   -35.6794 -35.6590 -35.6399 -35.6376 -35.5876 -35.5295 -35.4677 -30.7359
   -30.6774 -30.6535 -30.5328 -30.5242 -30.5042 -30.5003 -30.4983 -30.4941
   -30.4606 -30.4316 -30.4074 -30.3856 -30.3614 -30.3386 -30.3262 -30.3186
   -30.3133 -30.2972 -30.2846 -30.2709 -30.2490 -30.2335 -30.1920 -30.1713
   -30.1528 -30.1409 -30.1178 -30.0969 -30.0400 -30.0177 -29.9618 -29.9168
   -21.8939 -16.2699 -10.6995  -9.6346  -9.2219  -9.1476  -9.0472  -8.9092
    -8.5697  -8.3488  -8.3206  -8.2553  -8.1978  -8.1106  -8.0561  -7.9209
    -7.8999  -7.7661  -7.6727  -7.6091  -7.5197  -7.4840  -7.4216  -7.4052
    -7.3704  -7.3443  -7.2444  -7.2176  -7.1267  -6.9905  -6.8348  -6.7690
    -6.7558  -6.6226  -6.4389  -4.4415  -4.4217  -4.0691  -3.9105  -3.8508
    -3.7863  -3.6592  -3.2516  -2.9278  -2.8099  -2.7200  -2.6782  -2.5916
    -2.5515  -2.4427  -2.4351  -2.3716  -2.3105  -2.3039  -2.1395  -2.0510
    -2.0098  -1.9267  -1.7787  -1.7654  -1.7378  -1.7047  -1.5880  -1.5209
    -1.4749  -1.4295  -1.4043  -1.3694  -1.3349  -1.3176  -1.3037  -1.2859
    -1.2733  -1.2585  -1.2323  -1.2260  -1.1830  -1.1643  -1.1498  -1.0462
    -1.0321  -0.9902  -0.9684  -0.9347  -0.9156  -0.8521  -0.8322  -0.7899
    -0.7565  -0.7410  -0.6859  -0.6629  -0.6354  -0.6261  -0.6155  -0.5974
    -0.5665  -0.5583  -0.5282  -0.5162  -0.5020  -0.4717  -0.3566  -0.3263
    -0.2971  -0.2249  -0.1589  -0.1313  -0.1121  -0.0526   0.0039   0.0435
     0.0831   0.0983   0.1382   0.1969   0.2766   0.2963   0.3160   0.5183
     0.5365   0.6839   0.6847   0.7547   0.8120   0.9368   0.9663   1.0304
     1.1404   1.1560   1.2690   1.3031   1.3601   1.4604   1.4977   1.5449
     1.5660   1.7824   1.8335   1.8632   1.8946   1.9389   2.1149   2.1442
     2.2493   2.5151   2.6731   2.6778   2.7871   2.8562   2.9654   2.9993
     3.0256   3.0498   3.1292   3.1543   3.1821   3.2193   3.2491   3.2738
     3.3001   3.3356   3.3582   3.4077   3.4126   3.4214   3.4777   3.4917
     3.5187   3.5434   3.5899   3.6232   3.6726   3.7213   3.7519   3.7738
     3.7993   3.8428   3.8914   3.9215   3.9904   4.0102   4.0298   4.0422
     4.1008   4.1247   4.1536   4.1810   4.2138   4.2396   4.2690   4.2801
     4.3022   4.3424   4.4013   4.4345   4.4501   4.4971   4.5645   4.5732
     4.6175   4.6330   4.6730   4.7465   4.7641   4.8302   4.8726   4.8985
     4.9180

     the Fermi energy is     3.0251 ev

!    total energy              =   -5386.60206874 Ry
     estimated scf accuracy    <          1.3E-09 Ry
     smearing contrib. (-TS)   =      -0.03252597 Ry
     internal energy E=F+TS    =   -5386.56954277 Ry

     The total energy is F=E-TS. E is the sum of the following terms:
     one-electron contribution =  -55960.11085279 Ry
     hartree contribution      =   28013.85307150 Ry
     xc contribution           =    -807.45438277 Ry
     ewald contribution        =   23589.97378607 Ry
     one-center paw contrib.   =    -222.83116477 Ry

     convergence has been achieved in  55 iterations

     negative rho (up, down):  3.522E-02 0.000E+00

     Forces acting on atoms (cartesian axes, Ry/au):

     atom    1 type  1   force =     0.00169931   -0.00407792    0.00059386
     atom    2 type  1   force =    -0.00306037   -0.00745490    0.00369882
     atom    3 type  1   force =    -0.01070203    0.03180021   -0.00486862
     atom    4 type  1   force =     0.00035880   -0.01528954    0.02953166
     atom    5 type  1   force =    -0.00316944    0.01136221   -0.00121879
     atom    6 type  1   force =     0.00811095   -0.00091259    0.02743753
     atom    7 type  1   force =    -0.00153898   -0.02763583   -0.02362648
     atom    8 type  1   force =     0.01082170    0.02704240    0.00416098
     atom    9 type  1   force =    -0.01193152   -0.00471322   -0.03187854
     atom   10 type  1   force =    -0.00109574   -0.00107384   -0.00188501
     atom   11 type  1   force =     0.00127833    0.00090317   -0.00981563
     atom   12 type  2   force =     0.00620790    0.00856712    0.01238902
     atom   13 type  2   force =    -0.00140204   -0.00329113    0.00307984
     atom   14 type  2   force =     0.02316819   -0.00721374    0.01967964
     atom   15 type  2   force =    -0.01161765   -0.00001126    0.11357399
     atom   16 type  2   force =     0.00476531    0.00085137    0.09574763
     atom   17 type  2   force =    -0.04503073   -0.01828544   -0.02922166
     atom   18 type  2   force =     0.00850347    0.02284323   -0.03393192
     atom   19 type  2   force =    -0.00812992    0.01368870   -0.03317228
     atom   20 type  2   force =    -0.00159438   -0.01130457    0.00258944
     atom   21 type  2   force =     0.00824408    0.01621831   -0.00450771
     atom   22 type  3   force =     0.00252696   -0.00098332   -0.00382973
     atom   23 type  3   force =    -0.02356224   -0.01215749   -0.00560132
     atom   24 type  3   force =     0.01769703    0.01635261   -0.01595140
     atom   25 type  3   force =     0.01594163   -0.01288462    0.06425885
     atom   26 type  3   force =    -0.00420991    0.01187870    0.12429881
     atom   27 type  3   force =     0.03638099   -0.00460446   -0.00336155
     atom   28 type  3   force =    -0.00634738    0.00184500    0.04107284
     atom   29 type  3   force =    -0.00737665   -0.00246637   -0.00722435
     atom   30 type  3   force =     0.01530894   -0.00404795   -0.00458872
     atom   31 type  3   force =     0.00140489   -0.00109095   -0.01017453
     atom   32 type  3   force =    -0.00612097   -0.00194659   -0.00873025
     atom   33 type  4   force =    -0.00005878   -0.00799649   -0.03390293
     atom   34 type  4   force =     0.00945688    0.01256094   -0.00425170
     atom   35 type  4   force =    -0.00205599   -0.01822354   -0.02308609
     atom   36 type  4   force =     0.00102698    0.00986425   -0.03548792
     atom   37 type  4   force =     0.00345450    0.00376224    0.02720986
     atom   38 type  4   force =     0.00442306   -0.01632140    0.02036113
     atom   39 type  4   force =     0.00764444   -0.00629850    0.02691544
     atom   40 type  4   force =     0.00391337   -0.00587823    0.00439214
     atom   41 type  4   force =    -0.00227771    0.00264912    0.00450397
     atom   42 type  4   force =    -0.00183767   -0.00208986   -0.00154895
     atom   43 type  4   force =    -0.00393325    0.00348825    0.00063614
     atom   44 type  4   force =    -0.00164264    0.00111658    0.00160748
     atom   45 type  4   force =     0.00660954    0.00678853   -0.04059491
     atom   46 type  4   force =     0.00282814   -0.00017831   -0.04294241
     atom   47 type  4   force =    -0.00687679   -0.00014801   -0.02767563
     atom   48 type  4   force =    -0.01294990   -0.00974320   -0.02218332
     atom   49 type  4   force =    -0.00953013    0.00176700    0.00439133
     atom   50 type  4   force =    -0.00392701   -0.00022206    0.00636827
     atom   51 type  4   force =    -0.00018204    0.00021232   -0.00051907
     atom   52 type  4   force =    -0.00011481    0.01102947    0.00511214
     atom   53 type  4   force =    -0.00205351    0.00281509   -0.03102201
     atom   54 type  4   force =    -0.00616328    0.00429021   -0.04462372
     atom   55 type  4   force =    -0.00142908    0.00590343   -0.02978845
     atom   56 type  4   force =    -0.00210200   -0.00799716   -0.03159240
     atom   57 type  4   force =    -0.01572152    0.00825739   -0.02888205
     atom   58 type  4   force =    -0.00941576   -0.00550034   -0.03915065
     atom   59 type  4   force =     0.01416671    0.01136408   -0.03196228
     atom   60 type  4   force =     0.00212995   -0.01035550   -0.02219905
     atom   61 type  4   force =     0.01045085   -0.00318719    0.01848138
     atom   62 type  4   force =     0.00204756   -0.00654233    0.02509161
     atom   63 type  4   force =    -0.00290870   -0.00491898    0.00696964
     atom   64 type  4   force =     0.00126531   -0.00504428    0.03115780
     atom   65 type  4   force =    -0.00161337    0.00398035   -0.03330395
     atom   66 type  5   force =     0.00073379   -0.00308284    0.03262840
     atom   67 type  5   force =    -0.00271471    0.00307952    0.00188598
     atom   68 type  6   force =     0.00382904   -0.00110786   -0.00151963

     Total force =     0.058773     Total SCF correction =     0.000046
     Energy error            =      2.7E-03 Ry
     Gradient error          =      3.3E-02 Ry/Bohr

     number of scf cycles    =   9
     number of bfgs steps    =   8

     energy             old  =   -5386.5993628149 Ry
     energy             new  =   -5386.6020687372 Ry

     CASE: energy            _new < energy            _old

     new trust radius        =       0.0582420336 bohr
     new conv_thr            =       0.0000000033 Ry


ATOMIC_POSITIONS (angstrom)
Ti               0.0379877029        0.0316595787       16.1767201982
Ti               0.0291331002        8.3621570543       11.5803477355    0   0   0
Ti               2.0975368417        4.1651924041       13.6995846818    0   0   0
Ti               8.3795041056        2.0957563981        9.4724378689    0   0   0
Ti               8.3750099733        6.2687152092        9.4933225157    0   0   0
Ti               4.2170671874        6.2898439467        9.4911460380    0   0   0
Ti               8.3706959315        2.0992468883       13.7196199333    0   0   0
Ti               8.3814371399        6.2587905921       13.6914936631    0   0   0
Ti               4.2074509867        6.2621252961       13.6953624844    0   0   0
Ti               2.1243350798        6.2072376930       15.8253853027
Ti               6.3198068584        6.2526640739       15.7734400699
V                8.3871894997        4.0315860571       15.7066137458
V                4.2600948565        4.0732144387       15.6472441188
V                4.1453105473        4.2119457891       11.5975026988    0   0   0
V                2.1879867013        0.0520231596        9.5054883674    0   0   0
V                2.1522427348        4.1319303501        9.4904675789    0   0   0
V                2.0919720210       -0.0034525136       13.6809547049    0   0   0
V                6.2957223951        4.1813414611       13.7896152224    0   0   0
V                4.2104512702        2.0785028673       13.6089365586    0   0   0
V                2.1048639148        6.2714192178       11.5723879270    0   0   0
V                6.3158808164        6.1438819511       11.5700667150    0   0   0
Cr               4.2212539709       -0.0345754739       15.5414546383
Cr               0.1179128009        4.1786640750       11.5195623927    0   0   0
Cr               4.1681598842        8.2577799257       11.6615352591    0   0   0
Cr               6.1999882077        0.1106418811        9.6948923906    0   0   0
Cr               6.2007452456        4.0563627707        9.3394942948    0   0   0
Cr               6.3039559766        8.3200573949       13.5345114413    0   0   0
Cr               4.2149984025        2.0754774019        9.7444374941    0   0   0
Cr               2.2873858835        2.0342897208       15.5580030792
Cr               6.1826363806        1.9689968948       15.5392087764
Cr               2.0054620409        2.1149661174       11.6192682974    0   0   0
Cr               6.3992485267        2.2488278238       11.6549867199    0   0   0
C                8.3671464633        0.0123762133        9.4921945368    0   0   0
C                8.3685510870        4.1683341954        9.4949958325    0   0   0
C                4.2233794382        0.0660683478        9.5137772640    0   0   0
C                4.2071394793        4.1170355077        9.4900603783    0   0   0
C                8.3753352139       -0.0047460034       13.6879749419    0   0   0
C                8.3555577743        4.1752016178       13.6998947017    0   0   0
C                4.2131653834        0.0054873094       13.6688163572    0   0   0
C                4.2220181648        4.1373219388       13.6924183861    0   0   0
C                2.1855974934        0.1218693183       15.8798592064
C                2.1080288626        4.1165192621       15.9559318023
C                6.1974030739        0.1051248620       15.8947101313
C                6.2657214172        4.1666067652       15.9150116069
C                2.1521326937        0.0175132539       11.5903255372    0   0   0
C                2.1078429860        4.1683083653       11.5671868517    0   0   0
C                6.2417937451        0.0188099573       11.6002801854    0   0   0
C                6.3283074126        4.1569384024       11.5682471185    0   0   0
C                8.2912010784        2.1718056172       15.8115940879
C                8.3690876407        6.3570703942       15.7933978874
C                4.1997304420        2.0754659602       15.7892433871
C                4.2125234270        6.3929893428       15.8273176896
C                0.0147673152        2.1438801594       11.5939557114    0   0   0
C                0.0200697416        6.2277703895       11.5821679336    0   0   0
C                4.2182428542        2.0594943016       11.6100232202    0   0   0
C                4.2117703951        6.2583221129       11.5919858628    0   0   0
C                2.1713130363        2.0860319016        9.4919958919    0   0   0
C                2.1164500536        6.2753611976        9.5156635851    0   0   0
C                6.2203151227        2.0809934926        9.4961719556    0   0   0
C                6.2861737462        6.2618311600        9.5257047400    0   0   0
C                2.1349207790        2.0551228178       13.6855329086    0   0   0
C                2.1043015435        6.2915359703       13.6724452320    0   0   0
C                6.2612712230        2.0678980813       13.6766563617    0   0   0
C                6.2981398968        6.2588382292       13.6653030130    0   0   0
C                2.1569092570        6.0829735623       18.0235653971
O                2.2121905046        5.9210535563       19.1495032238
O                8.3465858327        0.0652465078       18.0110530068
H                7.6528018676        0.4541784370       18.5637736348



     Writing config-only to output data dir ./tmp/hec3_CrTiV_f100_COOH_ads.save/ :
     XML data file
     NEW-OLD atomic charge density approx. for the potential

     Check: negative core charge=   -0.000005

     negative rho (up, down):  3.488E-02 0.000E+00

     total cpu time spent up to now is     3600.0 secs

     Self-consistent Calculation

     iteration #  1     ecut=    60.00 Ry     beta= 0.30
     Davidson diagonalization with overlap
     ethr =  1.00E-06,  avg # of iterations = 10.0

     negative rho (up, down):  3.485E-02 0.000E+00

     total cpu time spent up to now is     3611.7 secs

     total energy              =   -5386.59861747 Ry
     estimated scf accuracy    <       0.01487324 Ry

     iteration #  2     ecut=    60.00 Ry     beta= 0.30
     Davidson diagonalization with overlap
     ethr =  2.65E-06,  avg # of iterations = 20.0

     negative rho (up, down):  3.484E-02 0.000E+00

     total cpu time spent up to now is     3625.9 secs

     total energy              =   -5386.55881391 Ry
     estimated scf accuracy    <       2.64033214 Ry

     iteration #  3     ecut=    60.00 Ry     beta= 0.30
     Davidson diagonalization with overlap
     c_bands:  5 eigenvalues not converged
     ethr =  2.65E-06,  avg # of iterations = 20.0

     negative rho (up, down):  3.485E-02 0.000E+00

     total cpu time spent up to now is     3640.1 secs

     total energy              =   -5386.59875199 Ry
     estimated scf accuracy    <       0.17754215 Ry

     iteration #  4     ecut=    60.00 Ry     beta= 0.30
     Davidson diagonalization with overlap
     ethr =  2.65E-06,  avg # of iterations = 15.0

     negative rho (up, down):  3.483E-02 0.000E+00

     total cpu time spent up to now is     3652.2 secs

     total energy              =   -5386.60189947 Ry
     estimated scf accuracy    <       0.06686762 Ry

     iteration #  5     ecut=    60.00 Ry     beta= 0.30
     Davidson diagonalization with overlap
     ethr =  2.65E-06,  avg # of iterations =  4.0

     negative rho (up, down):  3.485E-02 0.000E+00

     total cpu time spent up to now is     3660.0 secs

     total energy              =   -5386.60341704 Ry
     estimated scf accuracy    <       0.01245241 Ry

     iteration #  6     ecut=    60.00 Ry     beta= 0.30
     Davidson diagonalization with overlap
     ethr =  2.22E-06,  avg # of iterations =  2.0

     negative rho (up, down):  3.486E-02 0.000E+00

     total cpu time spent up to now is     3667.4 secs

     total energy              =   -5386.60365141 Ry
     estimated scf accuracy    <       0.01066932 Ry

     iteration #  7     ecut=    60.00 Ry     beta= 0.30
     Davidson diagonalization with overlap
     ethr =  1.90E-06,  avg # of iterations =  1.0

     negative rho (up, down):  3.486E-02 0.000E+00

     total cpu time spent up to now is     3674.1 secs

     total energy              =   -5386.60392795 Ry
     estimated scf accuracy    <       0.00353906 Ry

     iteration #  8     ecut=    60.00 Ry     beta= 0.30
     Davidson diagonalization with overlap
     ethr =  6.31E-07,  avg # of iterations =  2.0

     negative rho (up, down):  3.485E-02 0.000E+00

     total cpu time spent up to now is     3681.3 secs

     total energy              =   -5386.60400118 Ry
     estimated scf accuracy    <       0.00271073 Ry

     iteration #  9     ecut=    60.00 Ry     beta= 0.30
     Davidson diagonalization with overlap
     ethr =  4.83E-07,  avg # of iterations =  2.0

     negative rho (up, down):  3.486E-02 0.000E+00

     total cpu time spent up to now is     3688.5 secs

     total energy              =   -5386.60403780 Ry
     estimated scf accuracy    <       0.00257137 Ry

     iteration # 10     ecut=    60.00 Ry     beta= 0.30
     Davidson diagonalization with overlap
     ethr =  4.58E-07,  avg # of iterations =  1.0

     negative rho (up, down):  3.486E-02 0.000E+00

     total cpu time spent up to now is     3695.4 secs

     total energy              =   -5386.60411449 Ry
     estimated scf accuracy    <       0.00044152 Ry

     iteration # 11     ecut=    60.00 Ry     beta= 0.30
     Davidson diagonalization with overlap
     ethr =  7.87E-08,  avg # of iterations =  2.0

     negative rho (up, down):  3.485E-02 0.000E+00

     total cpu time spent up to now is     3703.0 secs

     total energy              =   -5386.60412445 Ry
     estimated scf accuracy    <       0.00055551 Ry

     iteration # 12     ecut=    60.00 Ry     beta= 0.30
     Davidson diagonalization with overlap
     ethr =  7.87E-08,  avg # of iterations =  2.0

     negative rho (up, down):  3.486E-02 0.000E+00

     total cpu time spent up to now is     3710.3 secs

     total energy              =   -5386.60413342 Ry
     estimated scf accuracy    <       0.00033018 Ry

     iteration # 13     ecut=    60.00 Ry     beta= 0.30
     Davidson diagonalization with overlap
     ethr =  5.89E-08,  avg # of iterations =  2.0

     negative rho (up, down):  3.486E-02 0.000E+00

     total cpu time spent up to now is     3717.1 secs

     total energy              =   -5386.60410114 Ry
     estimated scf accuracy    <       0.00323472 Ry

     iteration # 14     ecut=    60.00 Ry     beta= 0.30
     Davidson diagonalization with overlap
     ethr =  5.89E-08,  avg # of iterations =  1.0

     negative rho (up, down):  3.486E-02 0.000E+00

     total cpu time spent up to now is     3724.2 secs

     total energy              =   -5386.60414388 Ry
     estimated scf accuracy    <       0.00053503 Ry

     iteration # 15     ecut=    60.00 Ry     beta= 0.30
     Davidson diagonalization with overlap
     ethr =  5.89E-08,  avg # of iterations =  1.0

     negative rho (up, down):  3.486E-02 0.000E+00

     total cpu time spent up to now is     3731.0 secs

     total energy              =   -5386.60415538 Ry
     estimated scf accuracy    <       0.00005941 Ry

     iteration # 16     ecut=    60.00 Ry     beta= 0.30
     Davidson diagonalization with overlap
     ethr =  1.06E-08,  avg # of iterations =  2.0

     negative rho (up, down):  3.486E-02 0.000E+00

     total cpu time spent up to now is     3738.9 secs

     total energy              =   -5386.60415432 Ry
     estimated scf accuracy    <       0.00013761 Ry

     iteration # 17     ecut=    60.00 Ry     beta= 0.30
     Davidson diagonalization with overlap
     ethr =  1.06E-08,  avg # of iterations =  1.0

     negative rho (up, down):  3.486E-02 0.000E+00

     total cpu time spent up to now is     3745.5 secs

     total energy              =   -5386.60415791 Ry
     estimated scf accuracy    <       0.00005121 Ry

     iteration # 18     ecut=    60.00 Ry     beta= 0.30
     Davidson diagonalization with overlap
     ethr =  9.13E-09,  avg # of iterations =  1.0

     negative rho (up, down):  3.486E-02 0.000E+00

     total cpu time spent up to now is     3752.5 secs

     total energy              =   -5386.60415890 Ry
     estimated scf accuracy    <       0.00002740 Ry

     iteration # 19     ecut=    60.00 Ry     beta= 0.30
     Davidson diagonalization with overlap
     ethr =  4.88E-09,  avg # of iterations =  2.0

     negative rho (up, down):  3.486E-02 0.000E+00

     total cpu time spent up to now is     3759.6 secs

     total energy              =   -5386.60415954 Ry
     estimated scf accuracy    <       0.00001696 Ry

     iteration # 20     ecut=    60.00 Ry     beta= 0.30
     Davidson diagonalization with overlap
     ethr =  3.02E-09,  avg # of iterations =  2.0

     negative rho (up, down):  3.486E-02 0.000E+00

     total cpu time spent up to now is     3766.8 secs

     total energy              =   -5386.60415958 Ry
     estimated scf accuracy    <       0.00001590 Ry

     iteration # 21     ecut=    60.00 Ry     beta= 0.30
     Davidson diagonalization with overlap
     ethr =  2.83E-09,  avg # of iterations =  2.0

     negative rho (up, down):  3.486E-02 0.000E+00

     total cpu time spent up to now is     3774.4 secs

     total energy              =   -5386.60415986 Ry
     estimated scf accuracy    <       0.00001413 Ry

     iteration # 22     ecut=    60.00 Ry     beta= 0.30
     Davidson diagonalization with overlap
     ethr =  2.52E-09,  avg # of iterations =  1.0

     negative rho (up, down):  3.486E-02 0.000E+00

     total cpu time spent up to now is     3781.5 secs

     total energy              =   -5386.60416040 Ry
     estimated scf accuracy    <       0.00000360 Ry

     iteration # 23     ecut=    60.00 Ry     beta= 0.30
     Davidson diagonalization with overlap
     ethr =  6.42E-10,  avg # of iterations =  2.0

     negative rho (up, down):  3.486E-02 0.000E+00

     total cpu time spent up to now is     3788.9 secs

     total energy              =   -5386.60416028 Ry
     estimated scf accuracy    <       0.00000980 Ry

     iteration # 24     ecut=    60.00 Ry     beta= 0.30
     Davidson diagonalization with overlap
     ethr =  6.42E-10,  avg # of iterations =  2.0

     negative rho (up, down):  3.486E-02 0.000E+00

     total cpu time spent up to now is     3796.0 secs

     total energy              =   -5386.60416028 Ry
     estimated scf accuracy    <       0.00001820 Ry

     iteration # 25     ecut=    60.00 Ry     beta= 0.30
     Davidson diagonalization with overlap
     ethr =  6.42E-10,  avg # of iterations =  2.0

     negative rho (up, down):  3.486E-02 0.000E+00

     total cpu time spent up to now is     3803.2 secs

     total energy              =   -5386.60416035 Ry
     estimated scf accuracy    <       0.00000786 Ry

     iteration # 26     ecut=    60.00 Ry     beta= 0.30
     Davidson diagonalization with overlap
     ethr =  6.42E-10,  avg # of iterations =  2.0

     negative rho (up, down):  3.486E-02 0.000E+00

     total cpu time spent up to now is     3810.4 secs

     total energy              =   -5386.60416037 Ry
     estimated scf accuracy    <       0.00000665 Ry

     iteration # 27     ecut=    60.00 Ry     beta= 0.30
     Davidson diagonalization with overlap
     ethr =  6.42E-10,  avg # of iterations =  2.0

     negative rho (up, down):  3.486E-02 0.000E+00

     total cpu time spent up to now is     3817.7 secs

     total energy              =   -5386.60416039 Ry
     estimated scf accuracy    <       0.00000966 Ry

     iteration # 28     ecut=    60.00 Ry     beta= 0.30
     Davidson diagonalization with overlap
     ethr =  6.42E-10,  avg # of iterations =  1.0

     negative rho (up, down):  3.486E-02 0.000E+00

     total cpu time spent up to now is     3824.4 secs

     total energy              =   -5386.60416064 Ry
     estimated scf accuracy    <       0.00000082 Ry

     iteration # 29     ecut=    60.00 Ry     beta= 0.30
     Davidson diagonalization with overlap
     ethr =  1.46E-10,  avg # of iterations =  2.0

     negative rho (up, down):  3.486E-02 0.000E+00

     total cpu time spent up to now is     3832.1 secs

     total energy              =   -5386.60416066 Ry
     estimated scf accuracy    <       0.00000053 Ry

     iteration # 30     ecut=    60.00 Ry     beta= 0.30
     Davidson diagonalization with overlap
     ethr =  9.49E-11,  avg # of iterations =  2.0

     negative rho (up, down):  3.486E-02 0.000E+00

     total cpu time spent up to now is     3839.3 secs

     total energy              =   -5386.60416065 Ry
     estimated scf accuracy    <       0.00000099 Ry

     iteration # 31     ecut=    60.00 Ry     beta= 0.30
     Davidson diagonalization with overlap
     ethr =  9.49E-11,  avg # of iterations =  2.0

     negative rho (up, down):  3.486E-02 0.000E+00

     total cpu time spent up to now is     3846.4 secs

     total energy              =   -5386.60416066 Ry
     estimated scf accuracy    <       0.00000076 Ry

     iteration # 32     ecut=    60.00 Ry     beta= 0.30
     Davidson diagonalization with overlap
     ethr =  9.49E-11,  avg # of iterations =  1.0

     negative rho (up, down):  3.486E-02 0.000E+00

     total cpu time spent up to now is     3853.5 secs

     total energy              =   -5386.60416069 Ry
     estimated scf accuracy    <       0.00000020 Ry

     iteration # 33     ecut=    60.00 Ry     beta= 0.30
     Davidson diagonalization with overlap
     ethr =  3.49E-11,  avg # of iterations =  2.0

     negative rho (up, down):  3.486E-02 0.000E+00

     total cpu time spent up to now is     3861.5 secs

     total energy              =   -5386.60416070 Ry
     estimated scf accuracy    <       0.00000016 Ry

     iteration # 34     ecut=    60.00 Ry     beta= 0.30
     Davidson diagonalization with overlap
     ethr =  2.81E-11,  avg # of iterations =  1.0

     negative rho (up, down):  3.486E-02 0.000E+00

     total cpu time spent up to now is     3868.1 secs

     total energy              =   -5386.60416069 Ry
     estimated scf accuracy    <       0.00000075 Ry

     iteration # 35     ecut=    60.00 Ry     beta= 0.30
     Davidson diagonalization with overlap
     ethr =  2.81E-11,  avg # of iterations =  2.0

     negative rho (up, down):  3.486E-02 0.000E+00

     total cpu time spent up to now is     3875.2 secs

     total energy              =   -5386.60416069 Ry
     estimated scf accuracy    <       0.00000032 Ry

     iteration # 36     ecut=    60.00 Ry     beta= 0.30
     Davidson diagonalization with overlap
     ethr =  2.81E-11,  avg # of iterations =  2.0

     negative rho (up, down):  3.486E-02 0.000E+00

     total cpu time spent up to now is     3882.7 secs

     total energy              =   -5386.60416070 Ry
     estimated scf accuracy    <       0.00000034 Ry

     iteration # 37     ecut=    60.00 Ry     beta= 0.30
     Davidson diagonalization with overlap
     ethr =  2.81E-11,  avg # of iterations =  2.0

     negative rho (up, down):  3.486E-02 0.000E+00

     total cpu time spent up to now is     3889.9 secs

     total energy              =   -5386.60416069 Ry
     estimated scf accuracy    <       0.00000046 Ry

     iteration # 38     ecut=    60.00 Ry     beta= 0.30
     Davidson diagonalization with overlap
     ethr =  2.81E-11,  avg # of iterations =  1.0

     negative rho (up, down):  3.486E-02 0.000E+00

     total cpu time spent up to now is     3896.8 secs

     total energy              =   -5386.60416070 Ry
     estimated scf accuracy    <       0.00000011 Ry

     iteration # 39     ecut=    60.00 Ry     beta= 0.30
     Davidson diagonalization with overlap
     ethr =  1.87E-11,  avg # of iterations =  1.0

     negative rho (up, down):  3.486E-02 0.000E+00

     total cpu time spent up to now is     3903.8 secs

     total energy              =   -5386.60416070 Ry
     estimated scf accuracy    <       0.00000004 Ry

     iteration # 40     ecut=    60.00 Ry     beta= 0.30
     Davidson diagonalization with overlap
     ethr =  6.72E-12,  avg # of iterations =  2.0

     negative rho (up, down):  3.486E-02 0.000E+00

     total cpu time spent up to now is     3910.9 secs

     total energy              =   -5386.60416071 Ry
     estimated scf accuracy    <       0.00000007 Ry

     iteration # 41     ecut=    60.00 Ry     beta= 0.30
     Davidson diagonalization with overlap
     ethr =  6.72E-12,  avg # of iterations =  2.0

     negative rho (up, down):  3.486E-02 0.000E+00

     total cpu time spent up to now is     3918.2 secs

     total energy              =   -5386.60416070 Ry
     estimated scf accuracy    <       0.00000005 Ry

     iteration # 42     ecut=    60.00 Ry     beta= 0.30
     Davidson diagonalization with overlap
     ethr =  6.72E-12,  avg # of iterations =  2.0

     negative rho (up, down):  3.486E-02 0.000E+00

     total cpu time spent up to now is     3925.5 secs

     total energy              =   -5386.60416070 Ry
     estimated scf accuracy    <       0.00000004 Ry

     iteration # 43     ecut=    60.00 Ry     beta= 0.30
     Davidson diagonalization with overlap
     ethr =  6.72E-12,  avg # of iterations =  1.0

     negative rho (up, down):  3.486E-02 0.000E+00

     total cpu time spent up to now is     3932.1 secs

     total energy              =   -5386.60416071 Ry
     estimated scf accuracy    <       0.00000002 Ry

     iteration # 44     ecut=    60.00 Ry     beta= 0.30
     Davidson diagonalization with overlap
     ethr =  3.15E-12,  avg # of iterations =  1.0

     negative rho (up, down):  3.486E-02 0.000E+00

     total cpu time spent up to now is     3938.8 secs

     total energy              =   -5386.60416071 Ry
     estimated scf accuracy    <       0.00000005 Ry

     iteration # 45     ecut=    60.00 Ry     beta= 0.30
     Davidson diagonalization with overlap
     ethr =  3.15E-12,  avg # of iterations =  1.0

     negative rho (up, down):  3.486E-02 0.000E+00

     total cpu time spent up to now is     3945.6 secs

     total energy              =   -5386.60416071 Ry
     estimated scf accuracy    <       0.00000002 Ry

     iteration # 46     ecut=    60.00 Ry     beta= 0.30
     Davidson diagonalization with overlap
     ethr =  2.92E-12,  avg # of iterations =  1.0

     negative rho (up, down):  3.486E-02 0.000E+00

     total cpu time spent up to now is     3952.8 secs

     total energy              =   -5386.60416071 Ry
     estimated scf accuracy    <       0.00000001 Ry

     iteration # 47     ecut=    60.00 Ry     beta= 0.30
     Davidson diagonalization with overlap
     ethr =  2.58E-12,  avg # of iterations =  1.0

     negative rho (up, down):  3.486E-02 0.000E+00

     total cpu time spent up to now is     3959.4 secs

     total energy              =   -5386.60416071 Ry
     estimated scf accuracy    <       0.00000001 Ry

     iteration # 48     ecut=    60.00 Ry     beta= 0.30
     Davidson diagonalization with overlap
     ethr =  2.58E-12,  avg # of iterations =  1.0

     negative rho (up, down):  3.486E-02 0.000E+00

     total cpu time spent up to now is     3966.3 secs

     total energy              =   -5386.60416071 Ry
     estimated scf accuracy    <       0.00000002 Ry

     iteration # 49     ecut=    60.00 Ry     beta= 0.30
     Davidson diagonalization with overlap
     ethr =  2.58E-12,  avg # of iterations =  1.0

     negative rho (up, down):  3.486E-02 0.000E+00

     total cpu time spent up to now is     3973.3 secs

     total energy              =   -5386.60416071 Ry
     estimated scf accuracy    <          3.4E-09 Ry

     iteration # 50     ecut=    60.00 Ry     beta= 0.30
     Davidson diagonalization with overlap
     ethr =  6.05E-13,  avg # of iterations =  1.0

     negative rho (up, down):  3.486E-02 0.000E+00

     total cpu time spent up to now is     3980.0 secs

     End of self-consistent calculation

          k = 0.0000 0.0000 0.0000 ( 46961 PWs)   bands (ev):

   -69.5237 -69.5088 -69.4854 -69.4790 -69.4390 -69.4320 -69.4197 -69.4084
   -69.4037 -69.3933 -69.2115 -62.0332 -62.0207 -62.0021 -61.9651 -61.9188
   -61.8833 -61.8812 -61.8188 -61.7564 -61.7257 -54.2849 -54.2523 -54.2423
   -54.0921 -53.9634 -53.9340 -53.9292 -53.9118 -53.8944 -53.8151 -53.6777
   -40.9986 -40.9399 -40.9282 -40.9268 -40.9140 -40.9031 -40.8835 -40.8659
   -40.8628 -40.8611 -40.8486 -40.8427 -40.8377 -40.8279 -40.8222 -40.8106
   -40.7849 -40.7829 -40.7722 -40.7688 -40.7591 -40.7580 -40.7460 -40.7408
   -40.7320 -40.7072 -40.7013 -40.6992 -40.6875 -40.6506 -40.6485 -40.5719
   -40.4350 -36.0220 -35.9780 -35.9522 -35.9486 -35.9223 -35.9116 -35.8923
   -35.8606 -35.8367 -35.8327 -35.8122 -35.8053 -35.8038 -35.7951 -35.7767
   -35.7719 -35.7653 -35.7610 -35.7371 -35.7306 -35.7242 -35.7177 -35.6900
   -35.6722 -35.6571 -35.6368 -35.6289 -35.5831 -35.5272 -35.4698 -30.7566
   -30.6800 -30.6516 -30.5342 -30.5253 -30.5027 -30.5021 -30.4999 -30.4928
   -30.4659 -30.4388 -30.4105 -30.3828 -30.3635 -30.3518 -30.3284 -30.3269
   -30.3177 -30.3037 -30.2848 -30.2788 -30.2524 -30.2353 -30.1883 -30.1725
   -30.1527 -30.1414 -30.1152 -30.0913 -30.0426 -30.0349 -29.9818 -29.9369
   -21.8187 -16.3385 -10.6989  -9.6348  -9.2208  -9.1489  -9.0453  -8.9065
    -8.5691  -8.3519  -8.3200  -8.2600  -8.1984  -8.1086  -8.0536  -7.9193
    -7.8993  -7.7613  -7.6727  -7.6084  -7.5185  -7.4781  -7.4201  -7.4042
    -7.3729  -7.3432  -7.2492  -7.2280  -7.1226  -7.0022  -6.8342  -6.7694
    -6.7496  -6.6212  -6.4356  -4.3982  -4.3767  -4.1291  -3.9145  -3.8512
    -3.7854  -3.6673  -3.2512  -2.9311  -2.8101  -2.7087  -2.6744  -2.5937
    -2.5528  -2.4435  -2.4378  -2.3707  -2.3127  -2.3053  -2.1397  -2.0520
    -2.0122  -1.9264  -1.7788  -1.7689  -1.7389  -1.7050  -1.5909  -1.5185
    -1.4733  -1.4264  -1.4030  -1.3740  -1.3308  -1.3184  -1.3022  -1.2846
    -1.2726  -1.2573  -1.2312  -1.2274  -1.1824  -1.1690  -1.1534  -1.0478
    -1.0314  -0.9917  -0.9766  -0.9338  -0.9184  -0.8503  -0.8305  -0.7863
    -0.7595  -0.7325  -0.7005  -0.6675  -0.6505  -0.6307  -0.6121  -0.5951
    -0.5669  -0.5585  -0.5325  -0.5195  -0.5175  -0.4848  -0.3732  -0.3326
    -0.2968  -0.2281  -0.1580  -0.1300  -0.1041  -0.0512   0.0035   0.0487
     0.0816   0.0967   0.1395   0.1913   0.2555   0.2933   0.3130   0.5198
     0.5347   0.6658   0.6756   0.7463   0.8091   0.9270   0.9643   1.0235
     1.1374   1.1463   1.2653   1.2982   1.3617   1.4612   1.4934   1.5431
     1.5597   1.7787   1.8247   1.8544   1.8865   1.9370   2.1104   2.1632
     2.2560   2.4872   2.6763   2.6796   2.7901   2.8591   2.9684   3.0032
     3.0290   3.0585   3.1293   3.1540   3.1833   3.2239   3.2497   3.2825
     3.3033   3.3349   3.3602   3.4028   3.4173   3.4197   3.4778   3.4906
     3.5199   3.5425   3.5860   3.6205   3.6789   3.7199   3.7519   3.7735
     3.8028   3.8380   3.8862   3.9135   3.9900   4.0057   4.0260   4.0415
     4.1040   4.1222   4.1498   4.1813   4.2137   4.2396   4.2649   4.2775
     4.3015   4.3456   4.4034   4.4330   4.4436   4.4965   4.5635   4.5763
     4.6140   4.6355   4.6750   4.7404   4.7554   4.8298   4.8713   4.9063
     4.9228

     the Fermi energy is     3.0288 ev

!    total energy              =   -5386.60416071 Ry
     estimated scf accuracy    <          3.3E-09 Ry
     smearing contrib. (-TS)   =      -0.03351693 Ry
     internal energy E=F+TS    =   -5386.57064377 Ry

     The total energy is F=E-TS. E is the sum of the following terms:
     one-electron contribution =  -55950.33984449 Ry
     hartree contribution      =   28008.93602413 Ry
     xc contribution           =    -807.44495552 Ry
     ewald contribution        =   23585.10945404 Ry
     one-center paw contrib.   =    -222.83132193 Ry

     convergence has been achieved in  50 iterations

     negative rho (up, down):  3.486E-02 0.000E+00

     Forces acting on atoms (cartesian axes, Ry/au):

     atom    1 type  1   force =     0.00244351   -0.00434004   -0.00526685
     atom    2 type  1   force =    -0.00315711   -0.00694386    0.00366478
     atom    3 type  1   force =    -0.01144689    0.03401601   -0.00439654
     atom    4 type  1   force =     0.00032786   -0.01520273    0.02975910
     atom    5 type  1   force =    -0.00332395    0.01140435   -0.00073363
     atom    6 type  1   force =     0.00808021   -0.00073646    0.02733798
     atom    7 type  1   force =    -0.00208584   -0.02485519   -0.02490684
     atom    8 type  1   force =     0.01062087    0.02726953    0.00315260
     atom    9 type  1   force =    -0.01276597   -0.00367866   -0.03115624
     atom   10 type  1   force =     0.00132248    0.00304034   -0.00549878
     atom   11 type  1   force =    -0.00177766    0.00208196   -0.00984198
     atom   12 type  2   force =     0.00654962    0.01172344    0.00717713
     atom   13 type  2   force =     0.00066800   -0.00468986    0.00190035
     atom   14 type  2   force =     0.02307937   -0.00709202    0.01991969
     atom   15 type  2   force =    -0.01170558   -0.00001180    0.11331849
     atom   16 type  2   force =     0.00484642    0.00081750    0.09565995
     atom   17 type  2   force =    -0.04611918   -0.02025169   -0.02932880
     atom   18 type  2   force =     0.00851410    0.02566793   -0.03185844
     atom   19 type  2   force =    -0.00810382    0.01622174   -0.03324575
     atom   20 type  2   force =    -0.00155107   -0.01152591    0.00235243
     atom   21 type  2   force =     0.00797121    0.01590323   -0.00465520
     atom   22 type  3   force =     0.00288421   -0.00439928   -0.00020723
     atom   23 type  3   force =    -0.02316074   -0.01210477   -0.00463741
     atom   24 type  3   force =     0.01776441    0.01699363   -0.01624511
     atom   25 type  3   force =     0.01583653   -0.01310930    0.06417502
     atom   26 type  3   force =    -0.00410661    0.01200531    0.12422434
     atom   27 type  3   force =     0.03594226   -0.00607328   -0.00339364
     atom   28 type  3   force =    -0.00635504    0.00167439    0.04074391
     atom   29 type  3   force =    -0.00026291   -0.00085581    0.00352968
     atom   30 type  3   force =     0.01099409   -0.00351957    0.00497359
     atom   31 type  3   force =     0.00223767   -0.00086327   -0.00994937
     atom   32 type  3   force =    -0.00726546   -0.00185615   -0.00851694
     atom   33 type  4   force =    -0.00000533   -0.00807650   -0.03424050
     atom   34 type  4   force =     0.00934486    0.01251839   -0.00463925
     atom   35 type  4   force =    -0.00202904   -0.01803012   -0.02292693
     atom   36 type  4   force =     0.00102171    0.00990416   -0.03532993
     atom   37 type  4   force =     0.00350911    0.00308180    0.02788847
     atom   38 type  4   force =     0.00467519   -0.01683140    0.02289709
     atom   39 type  4   force =     0.00787352   -0.00583335    0.02563519
     atom   40 type  4   force =     0.00422949   -0.00756742    0.00533366
     atom   41 type  4   force =    -0.00346104    0.00350076    0.00124751
     atom   42 type  4   force =    -0.00337527   -0.00299902   -0.00067501
     atom   43 type  4   force =    -0.00103152    0.00369226   -0.00060727
     atom   44 type  4   force =    -0.00215869    0.00059743   -0.00061697
     atom   45 type  4   force =     0.00681371    0.00670052   -0.04025362
     atom   46 type  4   force =     0.00292496   -0.00038540   -0.04313427
     atom   47 type  4   force =    -0.00683279   -0.00000608   -0.02775814
     atom   48 type  4   force =    -0.01295447   -0.00978899   -0.02231565
     atom   49 type  4   force =    -0.01040646   -0.00271937   -0.00227043
     atom   50 type  4   force =    -0.00260026   -0.00374843   -0.00002456
     atom   51 type  4   force =    -0.00377551   -0.00089432   -0.00475182
     atom   52 type  4   force =    -0.00144521    0.01118192    0.00538228
     atom   53 type  4   force =    -0.00206191    0.00248825   -0.02944045
     atom   54 type  4   force =    -0.00610436    0.00459525   -0.04211717
     atom   55 type  4   force =    -0.00136249    0.00536869   -0.02983918
     atom   56 type  4   force =    -0.00200789   -0.00827463   -0.03079844
     atom   57 type  4   force =    -0.01590349    0.00834307   -0.02848561
     atom   58 type  4   force =    -0.00936082   -0.00550657   -0.03903600
     atom   59 type  4   force =     0.01417224    0.01151445   -0.03171154
     atom   60 type  4   force =     0.00214156   -0.01034103   -0.02235781
     atom   61 type  4   force =     0.00931739   -0.00441987    0.01567360
     atom   62 type  4   force =     0.00185506   -0.00692560    0.02692234
     atom   63 type  4   force =    -0.00001989   -0.00534063    0.00365704
     atom   64 type  4   force =     0.00203587   -0.00551374    0.03234571
     atom   65 type  4   force =    -0.00018762    0.00055583   -0.01661933
     atom   66 type  5   force =    -0.00019956   -0.00041226    0.01716761
     atom   67 type  5   force =    -0.00081607    0.00251082    0.00686428
     atom   68 type  6   force =     0.00129008    0.00035142    0.00088483

     Total force =     0.041056     Total SCF correction =     0.000061
     Energy error            =      2.1E-03 Ry
     Gradient error          =      1.7E-02 Ry/Bohr

     number of scf cycles    =  10
     number of bfgs steps    =   9

     energy             old  =   -5386.6020687372 Ry
     energy             new  =   -5386.6041607068 Ry

     CASE: energy            _new < energy            _old

     new trust radius        =       0.0413581435 bohr
     new conv_thr            =       0.0000000017 Ry


ATOMIC_POSITIONS (angstrom)
Ti               0.0419221628        0.0251240246       16.1768342702
Ti               0.0291331002        8.3621570543       11.5803477355    0   0   0
Ti               2.0975368417        4.1651924041       13.6995846818    0   0   0
Ti               8.3795041056        2.0957563981        9.4724378689    0   0   0
Ti               8.3750099733        6.2687152092        9.4933225157    0   0   0
Ti               4.2170671874        6.2898439467        9.4911460380    0   0   0
Ti               8.3706959315        2.0992468883       13.7196199333    0   0   0
Ti               8.3814371399        6.2587905921       13.6914936631    0   0   0
Ti               4.2074509867        6.2621252961       13.6953624844    0   0   0
Ti               2.1242074939        6.2024434199       15.8245466995
Ti               6.3220442822        6.2504731066       15.7679556130
V                8.3951912000        4.0349933131       15.7145639618
V                4.2631317431        4.0628506486       15.6496099285
V                4.1453105473        4.2119457891       11.5975026988    0   0   0
V                2.1879867013        0.0520231596        9.5054883674    0   0   0
V                2.1522427348        4.1319303501        9.4904675789    0   0   0
V                2.0919720210       -0.0034525136       13.6809547049    0   0   0
V                6.2957223951        4.1813414611       13.7896152224    0   0   0
V                4.2104512702        2.0785028673       13.6089365586    0   0   0
V                2.1048639148        6.2714192178       11.5723879270    0   0   0
V                6.3158808164        6.1438819511       11.5700667150    0   0   0
Cr               4.2235842812       -0.0358130647       15.5393616993
Cr               0.1179128009        4.1786640750       11.5195623927    0   0   0
Cr               4.1681598842        8.2577799257       11.6615352591    0   0   0
Cr               6.1999882077        0.1106418811        9.6948923906    0   0   0
Cr               6.2007452456        4.0563627707        9.3394942948    0   0   0
Cr               6.3039559766        8.3200573949       13.5345114413    0   0   0
Cr               4.2149984025        2.0754774019        9.7444374941    0   0   0
Cr               2.2826776327        2.0266588564       15.5533712374
Cr               6.2021637232        1.9617020819       15.5370399864
Cr               2.0054620409        2.1149661174       11.6192682974    0   0   0
Cr               6.3992485267        2.2488278238       11.6549867199    0   0   0
C                8.3671464633        0.0123762133        9.4921945368    0   0   0
C                8.3685510870        4.1683341954        9.4949958325    0   0   0
C                4.2233794382        0.0660683478        9.5137772640    0   0   0
C                4.2071394793        4.1170355077        9.4900603783    0   0   0
C                8.3753352139       -0.0047460034       13.6879749419    0   0   0
C                8.3555577743        4.1752016178       13.6998947017    0   0   0
C                4.2131653834        0.0054873094       13.6688163572    0   0   0
C                4.2220181648        4.1373219388       13.6924183861    0   0   0
C                2.1819068254        0.1283006364       15.8872688850
C                2.1057144782        4.1177305238       15.9570336114
C                6.1906795039        0.1117788382       15.8957732106
C                6.2607530602        4.1735436981       15.9201232541
C                2.1521326937        0.0175132539       11.5903255372    0   0   0
C                2.1078429860        4.1683083653       11.5671868517    0   0   0
C                6.2417937451        0.0188099573       11.6002801854    0   0   0
C                6.3283074126        4.1569384024       11.5682471185    0   0   0
C                8.2725403905        2.1761569707       15.8221691588
C                8.3638366476        6.3629829615       15.8072012501
C                4.1970571570        2.0796769077       15.7877825919
C                4.2104482183        6.4133665056       15.8332549302
C                0.0147673152        2.1438801594       11.5939557114    0   0   0
C                0.0200697416        6.2277703895       11.5821679336    0   0   0
C                4.2182428542        2.0594943016       11.6100232202    0   0   0
C                4.2117703951        6.2583221129       11.5919858628    0   0   0
C                2.1713130363        2.0860319016        9.4919958919    0   0   0
C                2.1164500536        6.2753611976        9.5156635851    0   0   0
C                6.2203151227        2.0809934926        9.4961719556    0   0   0
C                6.2861737462        6.2618311600        9.5257047400    0   0   0
C                2.1349207790        2.0551228178       13.6855329086    0   0   0
C                2.1043015435        6.2915359703       13.6724452320    0   0   0
C                6.2612712230        2.0678980813       13.6766563617    0   0   0
C                6.2981398968        6.2588382292       13.6653030130    0   0   0
C                2.1560973541        6.0822480747       18.0182820889
O                2.2108231279        5.9243386777       19.1495877693
O                8.3457059157        0.0682853543       18.0096469374
H                7.6557087072        0.4546336913       18.5650119643



     Writing config-only to output data dir ./tmp/hec3_CrTiV_f100_COOH_ads.save/ :
     XML data file
     NEW-OLD atomic charge density approx. for the potential

     Check: negative core charge=   -0.000005

     negative rho (up, down):  3.523E-02 0.000E+00

     total cpu time spent up to now is     3991.6 secs

     Self-consistent Calculation

     iteration #  1     ecut=    60.00 Ry     beta= 0.30
     Davidson diagonalization with overlap
     ethr =  1.00E-06,  avg # of iterations =  7.0

     negative rho (up, down):  3.521E-02 0.000E+00

     total cpu time spent up to now is     4002.0 secs

     total energy              =   -5386.60268757 Ry
     estimated scf accuracy    <       0.00838731 Ry

     iteration #  2     ecut=    60.00 Ry     beta= 0.30
     Davidson diagonalization with overlap
     ethr =  1.50E-06,  avg # of iterations = 20.0

     negative rho (up, down):  3.519E-02 0.000E+00

     total cpu time spent up to now is     4016.7 secs

     total energy              =   -5386.57863063 Ry
     estimated scf accuracy    <       1.61382493 Ry

     iteration #  3     ecut=    60.00 Ry     beta= 0.30
     Davidson diagonalization with overlap
     c_bands:  2 eigenvalues not converged
     ethr =  1.50E-06,  avg # of iterations = 20.0

     negative rho (up, down):  3.520E-02 0.000E+00

     total cpu time spent up to now is     4030.6 secs

     total energy              =   -5386.60293651 Ry
     estimated scf accuracy    <       0.09698430 Ry

     iteration #  4     ecut=    60.00 Ry     beta= 0.30
     Davidson diagonalization with overlap
     c_bands:  1 eigenvalues not converged
     ethr =  1.50E-06,  avg # of iterations = 20.0

     negative rho (up, down):  3.519E-02 0.000E+00

     total cpu time spent up to now is     4043.5 secs

     total energy              =   -5386.60468073 Ry
     estimated scf accuracy    <       0.02910488 Ry

     iteration #  5     ecut=    60.00 Ry     beta= 0.30
     Davidson diagonalization with overlap
     ethr =  1.50E-06,  avg # of iterations =  2.0

     negative rho (up, down):  3.521E-02 0.000E+00

     total cpu time spent up to now is     4050.7 secs

     total energy              =   -5386.60532141 Ry
     estimated scf accuracy    <       0.00724339 Ry

     iteration #  6     ecut=    60.00 Ry     beta= 0.30
     Davidson diagonalization with overlap
     ethr =  1.29E-06,  avg # of iterations =  1.0

     negative rho (up, down):  3.521E-02 0.000E+00

     total cpu time spent up to now is     4057.6 secs

     total energy              =   -5386.60543416 Ry
     estimated scf accuracy    <       0.00588172 Ry

     iteration #  7     ecut=    60.00 Ry     beta= 0.30
     Davidson diagonalization with overlap
     ethr =  1.05E-06,  avg # of iterations =  1.0

     negative rho (up, down):  3.521E-02 0.000E+00

     total cpu time spent up to now is     4064.1 secs

     total energy              =   -5386.60559819 Ry
     estimated scf accuracy    <       0.00143043 Ry

     iteration #  8     ecut=    60.00 Ry     beta= 0.30
     Davidson diagonalization with overlap
     ethr =  2.55E-07,  avg # of iterations =  5.0

     negative rho (up, down):  3.521E-02 0.000E+00

     total cpu time spent up to now is     4072.4 secs

     total energy              =   -5386.60562953 Ry
     estimated scf accuracy    <       0.00189031 Ry

     iteration #  9     ecut=    60.00 Ry     beta= 0.30
     Davidson diagonalization with overlap
     ethr =  2.55E-07,  avg # of iterations =  1.0

     negative rho (up, down):  3.521E-02 0.000E+00

     total cpu time spent up to now is     4079.2 secs

     total energy              =   -5386.60566693 Ry
     estimated scf accuracy    <       0.00113880 Ry

     iteration # 10     ecut=    60.00 Ry     beta= 0.30
     Davidson diagonalization with overlap
     ethr =  2.03E-07,  avg # of iterations =  1.0

     negative rho (up, down):  3.521E-02 0.000E+00

     total cpu time spent up to now is     4086.0 secs

     total energy              =   -5386.60569585 Ry
     estimated scf accuracy    <       0.00033370 Ry

     iteration # 11     ecut=    60.00 Ry     beta= 0.30
     Davidson diagonalization with overlap
     ethr =  5.95E-08,  avg # of iterations =  2.0

     negative rho (up, down):  3.521E-02 0.000E+00

     total cpu time spent up to now is     4093.2 secs

     total energy              =   -5386.60569892 Ry
     estimated scf accuracy    <       0.00048585 Ry

     iteration # 12     ecut=    60.00 Ry     beta= 0.30
     Davidson diagonalization with overlap
     ethr =  5.95E-08,  avg # of iterations =  1.0

     negative rho (up, down):  3.521E-02 0.000E+00

     total cpu time spent up to now is     4099.7 secs

     total energy              =   -5386.60571208 Ry
     estimated scf accuracy    <       0.00018659 Ry

     iteration # 13     ecut=    60.00 Ry     beta= 0.30
     Davidson diagonalization with overlap
     ethr =  3.33E-08,  avg # of iterations =  2.0

     negative rho (up, down):  3.521E-02 0.000E+00

     total cpu time spent up to now is     4106.6 secs

     total energy              =   -5386.60570297 Ry
     estimated scf accuracy    <       0.00108756 Ry

     iteration # 14     ecut=    60.00 Ry     beta= 0.30
     Davidson diagonalization with overlap
     ethr =  3.33E-08,  avg # of iterations =  2.0

     negative rho (up, down):  3.521E-02 0.000E+00

     total cpu time spent up to now is     4113.6 secs

     total energy              =   -5386.60571950 Ry
     estimated scf accuracy    <       0.00025943 Ry

     iteration # 15     ecut=    60.00 Ry     beta= 0.30
     Davidson diagonalization with overlap
     ethr =  3.33E-08,  avg # of iterations =  1.0

     negative rho (up, down):  3.521E-02 0.000E+00

     total cpu time spent up to now is     4120.7 secs

     total energy              =   -5386.60572414 Ry
     estimated scf accuracy    <       0.00002020 Ry

     iteration # 16     ecut=    60.00 Ry     beta= 0.30
     Davidson diagonalization with overlap
     ethr =  3.60E-09,  avg # of iterations =  6.0

     negative rho (up, down):  3.521E-02 0.000E+00

     total cpu time spent up to now is     4129.1 secs

     total energy              =   -5386.60572375 Ry
     estimated scf accuracy    <       0.00005297 Ry

     iteration # 17     ecut=    60.00 Ry     beta= 0.30
     Davidson diagonalization with overlap
     ethr =  3.60E-09,  avg # of iterations =  2.0

     negative rho (up, down):  3.521E-02 0.000E+00

     total cpu time spent up to now is     4136.4 secs

     total energy              =   -5386.60572524 Ry
     estimated scf accuracy    <       0.00002460 Ry

     iteration # 18     ecut=    60.00 Ry     beta= 0.30
     Davidson diagonalization with overlap
     ethr =  3.60E-09,  avg # of iterations =  1.0

     negative rho (up, down):  3.521E-02 0.000E+00

     total cpu time spent up to now is     4143.3 secs

     total energy              =   -5386.60572568 Ry
     estimated scf accuracy    <       0.00000952 Ry

     iteration # 19     ecut=    60.00 Ry     beta= 0.30
     Davidson diagonalization with overlap
     ethr =  1.70E-09,  avg # of iterations =  2.0

     negative rho (up, down):  3.521E-02 0.000E+00

     total cpu time spent up to now is     4150.8 secs

     total energy              =   -5386.60572584 Ry
     estimated scf accuracy    <       0.00001112 Ry

     iteration # 20     ecut=    60.00 Ry     beta= 0.30
     Davidson diagonalization with overlap
     ethr =  1.70E-09,  avg # of iterations =  1.0

     negative rho (up, down):  3.521E-02 0.000E+00

     total cpu time spent up to now is     4157.5 secs

     total energy              =   -5386.60572581 Ry
     estimated scf accuracy    <       0.00001136 Ry

     iteration # 21     ecut=    60.00 Ry     beta= 0.30
     Davidson diagonalization with overlap
     ethr =  1.70E-09,  avg # of iterations =  1.0

     negative rho (up, down):  3.521E-02 0.000E+00

     total cpu time spent up to now is     4164.3 secs

     total energy              =   -5386.60572600 Ry
     estimated scf accuracy    <       0.00000928 Ry

     iteration # 22     ecut=    60.00 Ry     beta= 0.30
     Davidson diagonalization with overlap
     ethr =  1.65E-09,  avg # of iterations =  1.0

     negative rho (up, down):  3.521E-02 0.000E+00

     total cpu time spent up to now is     4170.8 secs

     total energy              =   -5386.60572627 Ry
     estimated scf accuracy    <       0.00000270 Ry

     iteration # 23     ecut=    60.00 Ry     beta= 0.30
     Davidson diagonalization with overlap
     ethr =  4.81E-10,  avg # of iterations =  2.0

     negative rho (up, down):  3.521E-02 0.000E+00

     total cpu time spent up to now is     4178.1 secs

     total energy              =   -5386.60572627 Ry
     estimated scf accuracy    <       0.00000356 Ry

     iteration # 24     ecut=    60.00 Ry     beta= 0.30
     Davidson diagonalization with overlap
     ethr =  4.81E-10,  avg # of iterations =  2.0

     negative rho (up, down):  3.521E-02 0.000E+00

     total cpu time spent up to now is     4185.2 secs

     total energy              =   -5386.60572610 Ry
     estimated scf accuracy    <       0.00001766 Ry

     iteration # 25     ecut=    60.00 Ry     beta= 0.30
     Davidson diagonalization with overlap
     ethr =  4.81E-10,  avg # of iterations =  2.0

     negative rho (up, down):  3.521E-02 0.000E+00

     total cpu time spent up to now is     4192.9 secs

     total energy              =   -5386.60572634 Ry
     estimated scf accuracy    <       0.00000258 Ry

     iteration # 26     ecut=    60.00 Ry     beta= 0.30
     Davidson diagonalization with overlap
     ethr =  4.60E-10,  avg # of iterations =  1.0

     negative rho (up, down):  3.521E-02 0.000E+00

     total cpu time spent up to now is     4199.9 secs

     total energy              =   -5386.60572633 Ry
     estimated scf accuracy    <       0.00000278 Ry

     iteration # 27     ecut=    60.00 Ry     beta= 0.30
     Davidson diagonalization with overlap
     ethr =  4.60E-10,  avg # of iterations =  1.0

     negative rho (up, down):  3.521E-02 0.000E+00

     total cpu time spent up to now is     4206.5 secs

     total energy              =   -5386.60572638 Ry
     estimated scf accuracy    <       0.00000220 Ry

     iteration # 28     ecut=    60.00 Ry     beta= 0.30
     Davidson diagonalization with overlap
     ethr =  3.93E-10,  avg # of iterations =  1.0

     negative rho (up, down):  3.521E-02 0.000E+00

     total cpu time spent up to now is     4213.1 secs

     total energy              =   -5386.60572644 Ry
     estimated scf accuracy    <       0.00000037 Ry

     iteration # 29     ecut=    60.00 Ry     beta= 0.30
     Davidson diagonalization with overlap
     ethr =  6.61E-11,  avg # of iterations =  2.0

     negative rho (up, down):  3.521E-02 0.000E+00

     total cpu time spent up to now is     4220.2 secs

     total energy              =   -5386.60572644 Ry
     estimated scf accuracy    <       0.00000069 Ry

     iteration # 30     ecut=    60.00 Ry     beta= 0.30
     Davidson diagonalization with overlap
     ethr =  6.61E-11,  avg # of iterations =  2.0

     negative rho (up, down):  3.521E-02 0.000E+00

     total cpu time spent up to now is     4227.5 secs

     total energy              =   -5386.60572645 Ry
     estimated scf accuracy    <       0.00000062 Ry

     iteration # 31     ecut=    60.00 Ry     beta= 0.30
     Davidson diagonalization with overlap
     ethr =  6.61E-11,  avg # of iterations =  2.0

     negative rho (up, down):  3.521E-02 0.000E+00

     total cpu time spent up to now is     4234.9 secs

     total energy              =   -5386.60572645 Ry
     estimated scf accuracy    <       0.00000051 Ry

     iteration # 32     ecut=    60.00 Ry     beta= 0.30
     Davidson diagonalization with overlap
     ethr =  6.61E-11,  avg # of iterations =  1.0

     negative rho (up, down):  3.521E-02 0.000E+00

     total cpu time spent up to now is     4242.4 secs

     total energy              =   -5386.60572647 Ry
     estimated scf accuracy    <       0.00000010 Ry

     iteration # 33     ecut=    60.00 Ry     beta= 0.30
     Davidson diagonalization with overlap
     ethr =  1.83E-11,  avg # of iterations =  2.0

     negative rho (up, down):  3.521E-02 0.000E+00

     total cpu time spent up to now is     4250.1 secs

     total energy              =   -5386.60572647 Ry
     estimated scf accuracy    <       0.00000008 Ry

     iteration # 34     ecut=    60.00 Ry     beta= 0.30
     Davidson diagonalization with overlap
     ethr =  1.38E-11,  avg # of iterations =  2.0

     negative rho (up, down):  3.521E-02 0.000E+00

     total cpu time spent up to now is     4257.8 secs

     total energy              =   -5386.60572646 Ry
     estimated scf accuracy    <       0.00000046 Ry

     iteration # 35     ecut=    60.00 Ry     beta= 0.30
     Davidson diagonalization with overlap
     ethr =  1.38E-11,  avg # of iterations =  2.0

     negative rho (up, down):  3.521E-02 0.000E+00

     total cpu time spent up to now is     4265.8 secs

     total energy              =   -5386.60572647 Ry
     estimated scf accuracy    <       0.00000024 Ry

     iteration # 36     ecut=    60.00 Ry     beta= 0.30
     Davidson diagonalization with overlap
     ethr =  1.38E-11,  avg # of iterations =  2.0

     negative rho (up, down):  3.521E-02 0.000E+00

     total cpu time spent up to now is     4273.7 secs

     total energy              =   -5386.60572647 Ry
     estimated scf accuracy    <       0.00000013 Ry

     iteration # 37     ecut=    60.00 Ry     beta= 0.30
     Davidson diagonalization with overlap
     ethr =  1.38E-11,  avg # of iterations =  1.0

     negative rho (up, down):  3.521E-02 0.000E+00

     total cpu time spent up to now is     4281.1 secs

     total energy              =   -5386.60572647 Ry
     estimated scf accuracy    <       0.00000014 Ry

     iteration # 38     ecut=    60.00 Ry     beta= 0.30
     Davidson diagonalization with overlap
     ethr =  1.38E-11,  avg # of iterations =  1.0

     negative rho (up, down):  3.521E-02 0.000E+00

     total cpu time spent up to now is     4288.4 secs

     total energy              =   -5386.60572647 Ry
     estimated scf accuracy    <       0.00000004 Ry

     iteration # 39     ecut=    60.00 Ry     beta= 0.30
     Davidson diagonalization with overlap
     ethr =  7.38E-12,  avg # of iterations =  1.0

     negative rho (up, down):  3.521E-02 0.000E+00

     total cpu time spent up to now is     4295.6 secs

     total energy              =   -5386.60572648 Ry
     estimated scf accuracy    <       0.00000005 Ry

     iteration # 40     ecut=    60.00 Ry     beta= 0.30
     Davidson diagonalization with overlap
     ethr =  7.38E-12,  avg # of iterations =  1.0

     negative rho (up, down):  3.521E-02 0.000E+00

     total cpu time spent up to now is     4303.0 secs

     total energy              =   -5386.60572648 Ry
     estimated scf accuracy    <       0.00000005 Ry

     iteration # 41     ecut=    60.00 Ry     beta= 0.30
     Davidson diagonalization with overlap
     ethr =  7.38E-12,  avg # of iterations =  1.0

     negative rho (up, down):  3.521E-02 0.000E+00

     total cpu time spent up to now is     4310.3 secs

     total energy              =   -5386.60572647 Ry
     estimated scf accuracy    <       0.00000004 Ry

     iteration # 42     ecut=    60.00 Ry     beta= 0.30
     Davidson diagonalization with overlap
     ethr =  7.38E-12,  avg # of iterations =  1.0

     negative rho (up, down):  3.521E-02 0.000E+00

     total cpu time spent up to now is     4317.9 secs

     total energy              =   -5386.60572648 Ry
     estimated scf accuracy    <       0.00000002 Ry

     iteration # 43     ecut=    60.00 Ry     beta= 0.30
     Davidson diagonalization with overlap
     ethr =  4.18E-12,  avg # of iterations =  1.0

     negative rho (up, down):  3.521E-02 0.000E+00

     total cpu time spent up to now is     4325.4 secs

     total energy              =   -5386.60572648 Ry
     estimated scf accuracy    <          9.1E-09 Ry

     iteration # 44     ecut=    60.00 Ry     beta= 0.30
     Davidson diagonalization with overlap
     ethr =  1.61E-12,  avg # of iterations =  1.0

     negative rho (up, down):  3.521E-02 0.000E+00

     total cpu time spent up to now is     4332.8 secs

     total energy              =   -5386.60572648 Ry
     estimated scf accuracy    <       0.00000002 Ry

     iteration # 45     ecut=    60.00 Ry     beta= 0.30
     Davidson diagonalization with overlap
     ethr =  1.61E-12,  avg # of iterations =  1.0

     negative rho (up, down):  3.521E-02 0.000E+00

     total cpu time spent up to now is     4340.1 secs

     total energy              =   -5386.60572648 Ry
     estimated scf accuracy    <       0.00000001 Ry

     iteration # 46     ecut=    60.00 Ry     beta= 0.30
     Davidson diagonalization with overlap
     ethr =  1.61E-12,  avg # of iterations =  1.0

     negative rho (up, down):  3.521E-02 0.000E+00

     total cpu time spent up to now is     4347.3 secs

     total energy              =   -5386.60572648 Ry
     estimated scf accuracy    <          7.1E-09 Ry

     iteration # 47     ecut=    60.00 Ry     beta= 0.30
     Davidson diagonalization with overlap
     ethr =  1.27E-12,  avg # of iterations =  1.0

     negative rho (up, down):  3.521E-02 0.000E+00

     total cpu time spent up to now is     4354.3 secs

     total energy              =   -5386.60572648 Ry
     estimated scf accuracy    <          8.3E-09 Ry

     iteration # 48     ecut=    60.00 Ry     beta= 0.30
     Davidson diagonalization with overlap
     ethr =  1.27E-12,  avg # of iterations =  1.0

     negative rho (up, down):  3.521E-02 0.000E+00

     total cpu time spent up to now is     4361.6 secs

     total energy              =   -5386.60572648 Ry
     estimated scf accuracy    <          5.8E-09 Ry

     iteration # 49     ecut=    60.00 Ry     beta= 0.30
     Davidson diagonalization with overlap
     ethr =  1.04E-12,  avg # of iterations =  1.0

     negative rho (up, down):  3.521E-02 0.000E+00

     total cpu time spent up to now is     4368.9 secs

     total energy              =   -5386.60572648 Ry
     estimated scf accuracy    <          3.1E-09 Ry

     iteration # 50     ecut=    60.00 Ry     beta= 0.30
     Davidson diagonalization with overlap
     ethr =  5.44E-13,  avg # of iterations =  1.0

     negative rho (up, down):  3.521E-02 0.000E+00

     total cpu time spent up to now is     4376.4 secs

     total energy              =   -5386.60572648 Ry
     estimated scf accuracy    <          1.9E-09 Ry

     iteration # 51     ecut=    60.00 Ry     beta= 0.30
     Davidson diagonalization with overlap
     ethr =  3.38E-13,  avg # of iterations =  1.0

     negative rho (up, down):  3.521E-02 0.000E+00

     total cpu time spent up to now is     4383.5 secs

     total energy              =   -5386.60572648 Ry
     estimated scf accuracy    <          2.2E-09 Ry

     iteration # 52     ecut=    60.00 Ry     beta= 0.30
     Davidson diagonalization with overlap
     ethr =  3.38E-13,  avg # of iterations =  2.0

     negative rho (up, down):  3.521E-02 0.000E+00

     total cpu time spent up to now is     4391.2 secs

     total energy              =   -5386.60572648 Ry
     estimated scf accuracy    <          3.2E-09 Ry

     iteration # 53     ecut=    60.00 Ry     beta= 0.30
     Davidson diagonalization with overlap
     ethr =  3.38E-13,  avg # of iterations =  1.0

     negative rho (up, down):  3.521E-02 0.000E+00

     total cpu time spent up to now is     4398.5 secs

     total energy              =   -5386.60572648 Ry
     estimated scf accuracy    <          2.0E-09 Ry

     iteration # 54     ecut=    60.00 Ry     beta= 0.30
     Davidson diagonalization with overlap
     ethr =  3.38E-13,  avg # of iterations =  1.0

     negative rho (up, down):  3.521E-02 0.000E+00

     total cpu time spent up to now is     4405.9 secs

     End of self-consistent calculation

          k = 0.0000 0.0000 0.0000 ( 46961 PWs)   bands (ev):

   -69.5269 -69.5174 -69.4886 -69.4819 -69.4443 -69.4430 -69.4237 -69.4178
   -69.4103 -69.4082 -69.2162 -62.0393 -62.0265 -62.0067 -61.9695 -61.9333
   -61.8872 -61.8851 -61.8104 -61.7686 -61.7338 -54.2929 -54.2585 -54.2480
   -54.0995 -53.9810 -53.9405 -53.9344 -53.9104 -53.9036 -53.8137 -53.7025
   -41.0022 -40.9455 -40.9371 -40.9317 -40.9258 -40.9099 -40.8868 -40.8755
   -40.8720 -40.8655 -40.8567 -40.8520 -40.8442 -40.8417 -40.8264 -40.8145
   -40.7913 -40.7867 -40.7754 -40.7727 -40.7720 -40.7607 -40.7539 -40.7501
   -40.7377 -40.7174 -40.7107 -40.7040 -40.6997 -40.6647 -40.6529 -40.5767
   -40.4398 -36.0255 -35.9833 -35.9608 -35.9562 -35.9273 -35.9169 -35.8987
   -35.8654 -35.8419 -35.8379 -35.8213 -35.8173 -35.8097 -35.7995 -35.7821
   -35.7735 -35.7691 -35.7660 -35.7470 -35.7358 -35.7276 -35.7164 -35.6995
   -35.6731 -35.6618 -35.6465 -35.6248 -35.5889 -35.5334 -35.4806 -30.7671
   -30.6868 -30.6574 -30.5416 -30.5313 -30.5098 -30.5082 -30.5059 -30.4984
   -30.4766 -30.4505 -30.4188 -30.3848 -30.3707 -30.3662 -30.3413 -30.3342
   -30.3247 -30.3143 -30.2972 -30.2853 -30.2588 -30.2442 -30.1922 -30.1757
   -30.1599 -30.1457 -30.1141 -30.0943 -30.0613 -30.0388 -29.9979 -29.9547
   -21.7237 -16.3570 -10.7049  -9.6419  -9.2262  -9.1555  -9.0507  -8.9109
    -8.5756  -8.3606  -8.3259  -8.2684  -8.2041  -8.1131  -8.0587  -7.9243
    -7.9062  -7.7644  -7.6792  -7.6145  -7.5238  -7.4795  -7.4252  -7.4097
    -7.3829  -7.3492  -7.2614  -7.2437  -7.1292  -7.0160  -6.8404  -6.7763
    -6.7435  -6.6206  -6.4479  -4.3476  -4.3152  -4.1323  -3.9238  -3.8563
    -3.7898  -3.6780  -3.2474  -2.9396  -2.8174  -2.7089  -2.6754  -2.6016
    -2.5599  -2.4492  -2.4450  -2.3767  -2.3208  -2.3128  -2.1461  -2.0586
    -2.0199  -1.9321  -1.7868  -1.7776  -1.7462  -1.7116  -1.5989  -1.5244
    -1.4774  -1.4315  -1.4084  -1.3838  -1.3377  -1.3249  -1.3078  -1.2900
    -1.2789  -1.2631  -1.2389  -1.2317  -1.1883  -1.1823  -1.1626  -1.0562
    -1.0367  -0.9996  -0.9923  -0.9410  -0.9260  -0.8576  -0.8359  -0.7912
    -0.7676  -0.7330  -0.7082  -0.6785  -0.6604  -0.6339  -0.6150  -0.5988
    -0.5719  -0.5640  -0.5421  -0.5282  -0.5258  -0.4924  -0.3937  -0.3459
    -0.2977  -0.2352  -0.1656  -0.1378  -0.0996  -0.0555  -0.0015   0.0507
     0.0758   0.0929   0.1285   0.1809   0.2447   0.2870   0.3063   0.5102
     0.5268   0.6482   0.6618   0.7332   0.8028   0.9130   0.9580   1.0138
     1.1282   1.1295   1.2535   1.2883   1.3568   1.4560   1.4830   1.5352
     1.5491   1.7671   1.8089   1.8411   1.8721   1.9299   2.0818   2.1641
     2.2511   2.4548   2.6719   2.6738   2.7861   2.8549   2.9640   2.9991
     3.0238   3.0646   3.1219   3.1478   3.1794   3.2204   3.2426   3.2829
     3.2990   3.3261   3.3555   3.3904   3.4122   3.4151   3.4716   3.4837
     3.5148   3.5364   3.5736   3.6130   3.6812   3.7129   3.7451   3.7673
     3.8025   3.8260   3.8788   3.9067   3.9832   3.9969   4.0181   4.0349
     4.1001   4.1136   4.1410   4.1758   4.2049   4.2343   4.2607   4.2717
     4.2946   4.3428   4.3989   4.4251   4.4374   4.4885   4.5560   4.5780
     4.6059   4.6351   4.6725   4.7322   4.7429   4.8236   4.8677   4.9030
     4.9231

     the Fermi energy is     3.0255 ev

!    total energy              =   -5386.60572648 Ry
     estimated scf accuracy    <          1.4E-09 Ry
     smearing contrib. (-TS)   =      -0.03438942 Ry
     internal energy E=F+TS    =   -5386.57133706 Ry

     The total energy is F=E-TS. E is the sum of the following terms:
     one-electron contribution =  -55946.11045112 Ry
     hartree contribution      =   28006.69338130 Ry
     xc contribution           =    -807.44621879 Ry
     ewald contribution        =   23583.12378419 Ry
     one-center paw contrib.   =    -222.83183263 Ry

     convergence has been achieved in  54 iterations

     negative rho (up, down):  3.521E-02 0.000E+00

     Forces acting on atoms (cartesian axes, Ry/au):

     atom    1 type  1   force =     0.00247209   -0.00145359   -0.00508666
     atom    2 type  1   force =    -0.00324178   -0.00668103    0.00362156
     atom    3 type  1   force =    -0.01231241    0.03481968   -0.00387814
     atom    4 type  1   force =     0.00028717   -0.01512233    0.02974412
     atom    5 type  1   force =    -0.00344535    0.01144080   -0.00047480
     atom    6 type  1   force =     0.00806569   -0.00056514    0.02735567
     atom    7 type  1   force =    -0.00275369   -0.02218084   -0.02580107
     atom    8 type  1   force =     0.01050538    0.02682687    0.00006590
     atom    9 type  1   force =    -0.01366763   -0.00293895   -0.03216829
     atom   10 type  1   force =     0.00318181    0.00649983   -0.00638085
     atom   11 type  1   force =    -0.00335558    0.00438645   -0.00690624
     atom   12 type  2   force =     0.00557699    0.01131395   -0.00018712
     atom   13 type  2   force =     0.00268634   -0.00355070    0.00075738
     atom   14 type  2   force =     0.02289595   -0.00703590    0.01990201
     atom   15 type  2   force =    -0.01173594    0.00000474    0.11313642
     atom   16 type  2   force =     0.00493554    0.00076518    0.09564913
     atom   17 type  2   force =    -0.04682654   -0.02075746   -0.02935485
     atom   18 type  2   force =     0.00859708    0.02673572   -0.03023164
     atom   19 type  2   force =    -0.00819148    0.01825352   -0.03295226
     atom   20 type  2   force =    -0.00144893   -0.01168797    0.00205862
     atom   21 type  2   force =     0.00764798    0.01554474   -0.00495925
     atom   22 type  3   force =     0.00309224   -0.00176843    0.00252965
     atom   23 type  3   force =    -0.02288708   -0.01196417   -0.00419075
     atom   24 type  3   force =     0.01778398    0.01779101   -0.01646360
     atom   25 type  3   force =     0.01570757   -0.01332732    0.06404390
     atom   26 type  3   force =    -0.00390942    0.01199610    0.12424213
     atom   27 type  3   force =     0.03522206   -0.00632951   -0.00420133
     atom   28 type  3   force =    -0.00635682    0.00154640    0.04053303
     atom   29 type  3   force =     0.00273774    0.00065224    0.00920135
     atom   30 type  3   force =     0.00793123    0.00024442    0.00894128
     atom   31 type  3   force =     0.00282684   -0.00067276   -0.01007452
     atom   32 type  3   force =    -0.00802322   -0.00188063   -0.00853186
     atom   33 type  4   force =     0.00000557   -0.00812682   -0.03438658
     atom   34 type  4   force =     0.00922230    0.01251772   -0.00488562
     atom   35 type  4   force =    -0.00201626   -0.01785368   -0.02285726
     atom   36 type  4   force =     0.00093964    0.00992736   -0.03520696
     atom   37 type  4   force =     0.00352968    0.00265657    0.02786782
     atom   38 type  4   force =     0.00516682   -0.01705373    0.02526298
     atom   39 type  4   force =     0.00828349   -0.00636372    0.02412870
     atom   40 type  4   force =     0.00464237   -0.00902598    0.00641677
     atom   41 type  4   force =    -0.00382040    0.00167009   -0.00113628
     atom   42 type  4   force =    -0.00348801   -0.00359934   -0.00022217
     atom   43 type  4   force =     0.00034935    0.00058768   -0.00165384
     atom   44 type  4   force =    -0.00298332   -0.00034010   -0.00189608
     atom   45 type  4   force =     0.00690080    0.00657444   -0.03990260
     atom   46 type  4   force =     0.00301663   -0.00056249   -0.04317834
     atom   47 type  4   force =    -0.00666046    0.00012263   -0.02749355
     atom   48 type  4   force =    -0.01276441   -0.00963450   -0.02233694
     atom   49 type  4   force =    -0.01103504   -0.00497701   -0.00363236
     atom   50 type  4   force =    -0.00140782   -0.00840274    0.00007455
     atom   51 type  4   force =    -0.00505989   -0.00171042   -0.00605825
     atom   52 type  4   force =    -0.00249794    0.00634724    0.00657281
     atom   53 type  4   force =    -0.00212543    0.00211533   -0.02851563
     atom   54 type  4   force =    -0.00606164    0.00478806   -0.04053125
     atom   55 type  4   force =    -0.00146424    0.00492199   -0.03005240
     atom   56 type  4   force =    -0.00187675   -0.00855477   -0.02987233
     atom   57 type  4   force =    -0.01602879    0.00844733   -0.02818824
     atom   58 type  4   force =    -0.00934349   -0.00548754   -0.03898975
     atom   59 type  4   force =     0.01413677    0.01166108   -0.03154949
     atom   60 type  4   force =     0.00214657   -0.01026930   -0.02248536
     atom   61 type  4   force =     0.00895858   -0.00539828    0.01428171
     atom   62 type  4   force =     0.00216093   -0.00728230    0.02759212
     atom   63 type  4   force =     0.00244308   -0.00571664    0.00200528
     atom   64 type  4   force =     0.00255324   -0.00593706    0.03196051
     atom   65 type  4   force =     0.00098018   -0.00214191    0.00335968
     atom   66 type  5   force =    -0.00114764    0.00225041   -0.00235537
     atom   67 type  5   force =     0.00205205    0.00095097    0.00470682
     atom   68 type  6   force =    -0.00170433    0.00199454    0.00321797

     Total force =     0.034055     Total SCF correction =     0.000034
     Energy error            =      1.6E-03 Ry
     Gradient error          =      1.1E-02 Ry/Bohr

     number of scf cycles    =  11
     number of bfgs steps    =  10

     energy             old  =   -5386.6041607068 Ry
     energy             new  =   -5386.6057264768 Ry

     CASE: energy            _new < energy            _old

     new trust radius        =       0.0669959266 bohr
     new conv_thr            =       0.0000000011 Ry


ATOMIC_POSITIONS (angstrom)
Ti               0.0478961613        0.0175296697       16.1750080847
Ti               0.0291331002        8.3621570543       11.5803477355    0   0   0
Ti               2.0975368417        4.1651924041       13.6995846818    0   0   0
Ti               8.3795041056        2.0957563981        9.4724378689    0   0   0
Ti               8.3750099733        6.2687152092        9.4933225157    0   0   0
Ti               4.2170671874        6.2898439467        9.4911460380    0   0   0
Ti               8.3706959315        2.0992468883       13.7196199333    0   0   0
Ti               8.3814371399        6.2587905921       13.6914936631    0   0   0
Ti               4.2074509867        6.2621252961       13.6953624844    0   0   0
Ti               2.1267200716        6.2047242125       15.8191851996
Ti               6.3204485985        6.2540652461       15.7534301249
V                8.4092616408        4.0546734274       15.7247946362
V                4.2659977051        4.0502761174       15.6542321975
V                4.1453105473        4.2119457891       11.5975026988    0   0   0
V                2.1879867013        0.0520231596        9.5054883674    0   0   0
V                2.1522427348        4.1319303501        9.4904675789    0   0   0
V                2.0919720210       -0.0034525136       13.6809547049    0   0   0
V                6.2957223951        4.1813414611       13.7896152224    0   0   0
V                4.2104512702        2.0785028673       13.6089365586    0   0   0
V                2.1048639148        6.2714192178       11.5723879270    0   0   0
V                6.3158808164        6.1438819511       11.5700667150    0   0   0
Cr               4.2292623945       -0.0316826711       15.5375362137
Cr               0.1179128009        4.1786640750       11.5195623927    0   0   0
Cr               4.1681598842        8.2577799257       11.6615352591    0   0   0
Cr               6.1999882077        0.1106418811        9.6948923906    0   0   0
Cr               6.2007452456        4.0563627707        9.3394942948    0   0   0
Cr               6.3039559766        8.3200573949       13.5345114413    0   0   0
Cr               4.2149984025        2.0754774019        9.7444374941    0   0   0
Cr               2.2712480788        2.0194530279       15.5528538106
Cr               6.2372480969        1.9573163980       15.5396376163
Cr               2.0054620409        2.1149661174       11.6192682974    0   0   0
Cr               6.3992485267        2.2488278238       11.6549867199    0   0   0
C                8.3671464633        0.0123762133        9.4921945368    0   0   0
C                8.3685510870        4.1683341954        9.4949958325    0   0   0
C                4.2233794382        0.0660683478        9.5137772640    0   0   0
C                4.2071394793        4.1170355077        9.4900603783    0   0   0
C                8.3753352139       -0.0047460034       13.6879749419    0   0   0
C                8.3555577743        4.1752016178       13.6998947017    0   0   0
C                4.2131653834        0.0054873094       13.6688163572    0   0   0
C                4.2220181648        4.1373219388       13.6924183861    0   0   0
C                2.1740782544        0.1339333843       15.8943985884
C                2.1006407936        4.1149025404       15.9535958020
C                6.1837759629        0.1179532514       15.8917519400
C                6.2529458534        4.1789319685       15.9220404847
C                2.1521326937        0.0175132539       11.5903255372    0   0   0
C                2.1078429860        4.1683083653       11.5671868517    0   0   0
C                6.2417937451        0.0188099573       11.6002801854    0   0   0
C                6.3283074126        4.1569384024       11.5682471185    0   0   0
C                8.2447562290        2.1778497299       15.8376156100
C                8.3559317158        6.3535213056       15.8343419443
C                4.1904905379        2.0824971412       15.7818386760
C                4.2061861806        6.4372029523       15.8501398348
C                0.0147673152        2.1438801594       11.5939557114    0   0   0
C                0.0200697416        6.2277703895       11.5821679336    0   0   0
C                4.2182428542        2.0594943016       11.6100232202    0   0   0
C                4.2117703951        6.2583221129       11.5919858628    0   0   0
C                2.1713130363        2.0860319016        9.4919958919    0   0   0
C                2.1164500536        6.2753611976        9.5156635851    0   0   0
C                6.2203151227        2.0809934926        9.4961719556    0   0   0
C                6.2861737462        6.2618311600        9.5257047400    0   0   0
C                2.1349207790        2.0551228178       13.6855329086    0   0   0
C                2.1043015435        6.2915359703       13.6724452320    0   0   0
C                6.2612712230        2.0678980813       13.6766563617    0   0   0
C                6.2981398968        6.2588382292       13.6653030130    0   0   0
C                2.1557175258        6.0813322004       18.0161603698
O                2.2091433148        5.9276924225       19.1538196168
O                8.3460958544        0.0725284729       18.0115019589
H                7.6580493189        0.4558830864       18.5669251112



     Writing config-only to output data dir ./tmp/hec3_CrTiV_f100_COOH_ads.save/ :
     XML data file
     NEW-OLD atomic charge density approx. for the potential

     Check: negative core charge=   -0.000005

     negative rho (up, down):  3.532E-02 0.000E+00

     total cpu time spent up to now is     4418.2 secs

     Self-consistent Calculation

     iteration #  1     ecut=    60.00 Ry     beta= 0.30
     Davidson diagonalization with overlap
     ethr =  1.00E-06,  avg # of iterations =  7.0

     negative rho (up, down):  3.531E-02 0.000E+00

     total cpu time spent up to now is     4431.4 secs

     total energy              =   -5386.60304260 Ry
     estimated scf accuracy    <       0.01459795 Ry

     iteration #  2     ecut=    60.00 Ry     beta= 0.30
     Davidson diagonalization with overlap
     ethr =  2.60E-06,  avg # of iterations = 19.0

     negative rho (up, down):  3.528E-02 0.000E+00

     total cpu time spent up to now is     4448.9 secs

     total energy              =   -5386.57599183 Ry
     estimated scf accuracy    <       1.53257790 Ry

     iteration #  3     ecut=    60.00 Ry     beta= 0.30
     Davidson diagonalization with overlap
     c_bands:  4 eigenvalues not converged
     ethr =  2.60E-06,  avg # of iterations = 20.0

     negative rho (up, down):  3.529E-02 0.000E+00

     total cpu time spent up to now is     4466.0 secs

     total energy              =   -5386.60116287 Ry
     estimated scf accuracy    <       0.26040371 Ry

     iteration #  4     ecut=    60.00 Ry     beta= 0.30
     Davidson diagonalization with overlap
     ethr =  2.60E-06,  avg # of iterations = 14.0

     negative rho (up, down):  3.529E-02 0.000E+00

     total cpu time spent up to now is     4478.9 secs

     total energy              =   -5386.60541288 Ry
     estimated scf accuracy    <       0.06388987 Ry

     iteration #  5     ecut=    60.00 Ry     beta= 0.30
     Davidson diagonalization with overlap
     ethr =  2.60E-06,  avg # of iterations =  4.0

     negative rho (up, down):  3.531E-02 0.000E+00

     total cpu time spent up to now is     4487.9 secs

     total energy              =   -5386.60673760 Ry
     estimated scf accuracy    <       0.01879522 Ry

     iteration #  6     ecut=    60.00 Ry     beta= 0.30
     Davidson diagonalization with overlap
     ethr =  2.60E-06,  avg # of iterations =  2.0

     negative rho (up, down):  3.531E-02 0.000E+00

     total cpu time spent up to now is     4496.2 secs

     total energy              =   -5386.60700591 Ry
     estimated scf accuracy    <       0.01585909 Ry

     iteration #  7     ecut=    60.00 Ry     beta= 0.30
     Davidson diagonalization with overlap
     ethr =  2.60E-06,  avg # of iterations =  1.0

     negative rho (up, down):  3.532E-02 0.000E+00

     total cpu time spent up to now is     4503.7 secs

     total energy              =   -5386.60740226 Ry
     estimated scf accuracy    <       0.00354618 Ry

     iteration #  8     ecut=    60.00 Ry     beta= 0.30
     Davidson diagonalization with overlap
     ethr =  6.32E-07,  avg # of iterations =  2.0

     negative rho (up, down):  3.532E-02 0.000E+00

     total cpu time spent up to now is     4511.8 secs

     total energy              =   -5386.60748524 Ry
     estimated scf accuracy    <       0.00390415 Ry

     iteration #  9     ecut=    60.00 Ry     beta= 0.30
     Davidson diagonalization with overlap
     ethr =  6.32E-07,  avg # of iterations =  1.0

     negative rho (up, down):  3.532E-02 0.000E+00

     total cpu time spent up to now is     4518.8 secs

     total energy              =   -5386.60760810 Ry
     estimated scf accuracy    <       0.00114509 Ry

     iteration # 10     ecut=    60.00 Ry     beta= 0.30
     Davidson diagonalization with overlap
     ethr =  2.04E-07,  avg # of iterations =  2.0

     negative rho (up, down):  3.533E-02 0.000E+00

     total cpu time spent up to now is     4527.1 secs

     total energy              =   -5386.60762360 Ry
     estimated scf accuracy    <       0.00117361 Ry

     iteration # 11     ecut=    60.00 Ry     beta= 0.30
     Davidson diagonalization with overlap
     ethr =  2.04E-07,  avg # of iterations =  1.0

     negative rho (up, down):  3.532E-02 0.000E+00

     total cpu time spent up to now is     4534.5 secs

     total energy              =   -5386.60764277 Ry
     estimated scf accuracy    <       0.00100223 Ry

     iteration # 12     ecut=    60.00 Ry     beta= 0.30
     Davidson diagonalization with overlap
     ethr =  1.79E-07,  avg # of iterations =  1.0

     negative rho (up, down):  3.533E-02 0.000E+00

     total cpu time spent up to now is     4541.3 secs

     total energy              =   -5386.60766727 Ry
     estimated scf accuracy    <       0.00055658 Ry

     iteration # 13     ecut=    60.00 Ry     beta= 0.30
     Davidson diagonalization with overlap
     ethr =  9.92E-08,  avg # of iterations =  2.0

     negative rho (up, down):  3.533E-02 0.000E+00

     total cpu time spent up to now is     4548.9 secs

     total energy              =   -5386.60764481 Ry
     estimated scf accuracy    <       0.00267400 Ry

     iteration # 14     ecut=    60.00 Ry     beta= 0.30
     Davidson diagonalization with overlap
     ethr =  9.92E-08,  avg # of iterations =  1.0

     negative rho (up, down):  3.533E-02 0.000E+00

     total cpu time spent up to now is     4556.3 secs

     total energy              =   -5386.60768936 Ry
     estimated scf accuracy    <       0.00034315 Ry

     iteration # 15     ecut=    60.00 Ry     beta= 0.30
     Davidson diagonalization with overlap
     ethr =  6.12E-08,  avg # of iterations =  1.0

     negative rho (up, down):  3.533E-02 0.000E+00

     total cpu time spent up to now is     4563.7 secs

     total energy              =   -5386.60769191 Ry
     estimated scf accuracy    <       0.00018005 Ry

     iteration # 16     ecut=    60.00 Ry     beta= 0.30
     Davidson diagonalization with overlap
     ethr =  3.21E-08,  avg # of iterations =  2.0

     negative rho (up, down):  3.533E-02 0.000E+00

     total cpu time spent up to now is     4572.4 secs

     total energy              =   -5386.60769371 Ry
     estimated scf accuracy    <       0.00026840 Ry

     iteration # 17     ecut=    60.00 Ry     beta= 0.30
     Davidson diagonalization with overlap
     ethr =  3.21E-08,  avg # of iterations =  1.0

     negative rho (up, down):  3.533E-02 0.000E+00

     total cpu time spent up to now is     4579.5 secs

     total energy              =   -5386.60769786 Ry
     estimated scf accuracy    <       0.00007665 Ry

     iteration # 18     ecut=    60.00 Ry     beta= 0.30
     Davidson diagonalization with overlap
     ethr =  1.37E-08,  avg # of iterations =  1.0

     negative rho (up, down):  3.533E-02 0.000E+00

     total cpu time spent up to now is     4586.6 secs

     total energy              =   -5386.60770022 Ry
     estimated scf accuracy    <       0.00003457 Ry

     iteration # 19     ecut=    60.00 Ry     beta= 0.30
     Davidson diagonalization with overlap
     ethr =  6.16E-09,  avg # of iterations =  1.0

     negative rho (up, down):  3.533E-02 0.000E+00

     total cpu time spent up to now is     4593.8 secs

     total energy              =   -5386.60770107 Ry
     estimated scf accuracy    <       0.00001533 Ry

     iteration # 20     ecut=    60.00 Ry     beta= 0.30
     Davidson diagonalization with overlap
     ethr =  2.73E-09,  avg # of iterations =  2.0

     negative rho (up, down):  3.533E-02 0.000E+00

     total cpu time spent up to now is     4601.6 secs

     total energy              =   -5386.60770099 Ry
     estimated scf accuracy    <       0.00002107 Ry

     iteration # 21     ecut=    60.00 Ry     beta= 0.30
     Davidson diagonalization with overlap
     ethr =  2.73E-09,  avg # of iterations =  2.0

     negative rho (up, down):  3.533E-02 0.000E+00

     total cpu time spent up to now is     4609.2 secs

     total energy              =   -5386.60770129 Ry
     estimated scf accuracy    <       0.00002172 Ry

     iteration # 22     ecut=    60.00 Ry     beta= 0.30
     Davidson diagonalization with overlap
     ethr =  2.73E-09,  avg # of iterations =  1.0

     negative rho (up, down):  3.533E-02 0.000E+00

     total cpu time spent up to now is     4616.0 secs

     total energy              =   -5386.60770176 Ry
     estimated scf accuracy    <       0.00001418 Ry

     iteration # 23     ecut=    60.00 Ry     beta= 0.30
     Davidson diagonalization with overlap
     ethr =  2.53E-09,  avg # of iterations =  1.0

     negative rho (up, down):  3.533E-02 0.000E+00

     total cpu time spent up to now is     4623.4 secs

     total energy              =   -5386.60770146 Ry
     estimated scf accuracy    <       0.00003079 Ry

     iteration # 24     ecut=    60.00 Ry     beta= 0.30
     Davidson diagonalization with overlap
     ethr =  2.53E-09,  avg # of iterations =  1.0

     negative rho (up, down):  3.533E-02 0.000E+00

     total cpu time spent up to now is     4630.8 secs

     total energy              =   -5386.60770178 Ry
     estimated scf accuracy    <       0.00002776 Ry

     iteration # 25     ecut=    60.00 Ry     beta= 0.30
     Davidson diagonalization with overlap
     ethr =  2.53E-09,  avg # of iterations =  1.0

     negative rho (up, down):  3.533E-02 0.000E+00

     total cpu time spent up to now is     4637.9 secs

     total energy              =   -5386.60770193 Ry
     estimated scf accuracy    <       0.00000955 Ry

     iteration # 26     ecut=    60.00 Ry     beta= 0.30
     Davidson diagonalization with overlap
     ethr =  1.70E-09,  avg # of iterations =  1.0

     negative rho (up, down):  3.533E-02 0.000E+00

     total cpu time spent up to now is     4645.1 secs

     total energy              =   -5386.60770171 Ry
     estimated scf accuracy    <       0.00002806 Ry

     iteration # 27     ecut=    60.00 Ry     beta= 0.30
     Davidson diagonalization with overlap
     ethr =  1.70E-09,  avg # of iterations =  1.0

     negative rho (up, down):  3.533E-02 0.000E+00

     total cpu time spent up to now is     4652.5 secs

     total energy              =   -5386.60770218 Ry
     estimated scf accuracy    <       0.00000562 Ry

     iteration # 28     ecut=    60.00 Ry     beta= 0.30
     Davidson diagonalization with overlap
     ethr =  1.00E-09,  avg # of iterations =  1.0

     negative rho (up, down):  3.533E-02 0.000E+00

     total cpu time spent up to now is     4659.8 secs

     total energy              =   -5386.60770234 Ry
     estimated scf accuracy    <       0.00000331 Ry

     iteration # 29     ecut=    60.00 Ry     beta= 0.30
     Davidson diagonalization with overlap
     ethr =  5.89E-10,  avg # of iterations =  1.0

     negative rho (up, down):  3.533E-02 0.000E+00

     total cpu time spent up to now is     4667.0 secs

     total energy              =   -5386.60770243 Ry
     estimated scf accuracy    <       0.00000092 Ry

     iteration # 30     ecut=    60.00 Ry     beta= 0.30
     Davidson diagonalization with overlap
     ethr =  1.63E-10,  avg # of iterations =  2.0

     negative rho (up, down):  3.533E-02 0.000E+00

     total cpu time spent up to now is     4675.0 secs

     total energy              =   -5386.60770244 Ry
     estimated scf accuracy    <       0.00000145 Ry

     iteration # 31     ecut=    60.00 Ry     beta= 0.30
     Davidson diagonalization with overlap
     ethr =  1.63E-10,  avg # of iterations =  2.0

     negative rho (up, down):  3.533E-02 0.000E+00

     total cpu time spent up to now is     4683.2 secs

     total energy              =   -5386.60770244 Ry
     estimated scf accuracy    <       0.00000158 Ry

     iteration # 32     ecut=    60.00 Ry     beta= 0.30
     Davidson diagonalization with overlap
     ethr =  1.63E-10,  avg # of iterations =  1.0

     negative rho (up, down):  3.533E-02 0.000E+00

     total cpu time spent up to now is     4690.3 secs

     total energy              =   -5386.60770249 Ry
     estimated scf accuracy    <       0.00000070 Ry

     iteration # 33     ecut=    60.00 Ry     beta= 0.30
     Davidson diagonalization with overlap
     ethr =  1.25E-10,  avg # of iterations =  1.0

     negative rho (up, down):  3.533E-02 0.000E+00

     total cpu time spent up to now is     4697.4 secs

     total energy              =   -5386.60770249 Ry
     estimated scf accuracy    <       0.00000081 Ry

     iteration # 34     ecut=    60.00 Ry     beta= 0.30
     Davidson diagonalization with overlap
     ethr =  1.25E-10,  avg # of iterations =  2.0

     negative rho (up, down):  3.533E-02 0.000E+00

     total cpu time spent up to now is     4705.3 secs

     total energy              =   -5386.60770247 Ry
     estimated scf accuracy    <       0.00000296 Ry

     iteration # 35     ecut=    60.00 Ry     beta= 0.30
     Davidson diagonalization with overlap
     ethr =  1.25E-10,  avg # of iterations =  1.0

     negative rho (up, down):  3.533E-02 0.000E+00

     total cpu time spent up to now is     4712.6 secs

     total energy              =   -5386.60770250 Ry
     estimated scf accuracy    <       0.00000057 Ry

     iteration # 36     ecut=    60.00 Ry     beta= 0.30
     Davidson diagonalization with overlap
     ethr =  1.01E-10,  avg # of iterations =  2.0

     negative rho (up, down):  3.533E-02 0.000E+00

     total cpu time spent up to now is     4720.8 secs

     total energy              =   -5386.60770248 Ry
     estimated scf accuracy    <       0.00000165 Ry

     iteration # 37     ecut=    60.00 Ry     beta= 0.30
     Davidson diagonalization with overlap
     ethr =  1.01E-10,  avg # of iterations =  1.0

     negative rho (up, down):  3.533E-02 0.000E+00

     total cpu time spent up to now is     4728.2 secs

     total energy              =   -5386.60770251 Ry
     estimated scf accuracy    <       0.00000045 Ry

     iteration # 38     ecut=    60.00 Ry     beta= 0.30
     Davidson diagonalization with overlap
     ethr =  7.99E-11,  avg # of iterations =  1.0

     negative rho (up, down):  3.533E-02 0.000E+00

     total cpu time spent up to now is     4735.5 secs

     total energy              =   -5386.60770252 Ry
     estimated scf accuracy    <       0.00000030 Ry

     iteration # 39     ecut=    60.00 Ry     beta= 0.30
     Davidson diagonalization with overlap
     ethr =  5.37E-11,  avg # of iterations =  1.0

     negative rho (up, down):  3.533E-02 0.000E+00

     total cpu time spent up to now is     4742.8 secs

     total energy              =   -5386.60770253 Ry
     estimated scf accuracy    <       0.00000009 Ry

     iteration # 40     ecut=    60.00 Ry     beta= 0.30
     Davidson diagonalization with overlap
     ethr =  1.64E-11,  avg # of iterations =  2.0

     negative rho (up, down):  3.533E-02 0.000E+00

     total cpu time spent up to now is     4751.0 secs

     total energy              =   -5386.60770253 Ry
     estimated scf accuracy    <       0.00000016 Ry

     iteration # 41     ecut=    60.00 Ry     beta= 0.30
     Davidson diagonalization with overlap
     ethr =  1.64E-11,  avg # of iterations =  1.0

     negative rho (up, down):  3.533E-02 0.000E+00

     total cpu time spent up to now is     4758.6 secs

     total energy              =   -5386.60770253 Ry
     estimated scf accuracy    <       0.00000011 Ry

     iteration # 42     ecut=    60.00 Ry     beta= 0.30
     Davidson diagonalization with overlap
     ethr =  1.64E-11,  avg # of iterations =  2.0

     negative rho (up, down):  3.533E-02 0.000E+00

     total cpu time spent up to now is     4766.5 secs

     total energy              =   -5386.60770253 Ry
     estimated scf accuracy    <       0.00000008 Ry

     iteration # 43     ecut=    60.00 Ry     beta= 0.30
     Davidson diagonalization with overlap
     ethr =  1.43E-11,  avg # of iterations =  1.0

     negative rho (up, down):  3.533E-02 0.000E+00

     total cpu time spent up to now is     4773.6 secs

     total energy              =   -5386.60770253 Ry
     estimated scf accuracy    <       0.00000005 Ry

     iteration # 44     ecut=    60.00 Ry     beta= 0.30
     Davidson diagonalization with overlap
     ethr =  8.33E-12,  avg # of iterations =  2.0

     negative rho (up, down):  3.533E-02 0.000E+00

     total cpu time spent up to now is     4781.7 secs

     total energy              =   -5386.60770253 Ry
     estimated scf accuracy    <       0.00000028 Ry

     iteration # 45     ecut=    60.00 Ry     beta= 0.30
     Davidson diagonalization with overlap
     ethr =  8.33E-12,  avg # of iterations =  1.0

     negative rho (up, down):  3.533E-02 0.000E+00

     total cpu time spent up to now is     4788.7 secs

     total energy              =   -5386.60770254 Ry
     estimated scf accuracy    <       0.00000003 Ry

     iteration # 46     ecut=    60.00 Ry     beta= 0.30
     Davidson diagonalization with overlap
     ethr =  5.42E-12,  avg # of iterations =  1.0

     negative rho (up, down):  3.533E-02 0.000E+00

     total cpu time spent up to now is     4795.9 secs

     total energy              =   -5386.60770253 Ry
     estimated scf accuracy    <       0.00000007 Ry

     iteration # 47     ecut=    60.00 Ry     beta= 0.30
     Davidson diagonalization with overlap
     ethr =  5.42E-12,  avg # of iterations =  1.0

     negative rho (up, down):  3.533E-02 0.000E+00

     total cpu time spent up to now is     4803.0 secs

     total energy              =   -5386.60770253 Ry
     estimated scf accuracy    <       0.00000002 Ry

     iteration # 48     ecut=    60.00 Ry     beta= 0.30
     Davidson diagonalization with overlap
     ethr =  4.41E-12,  avg # of iterations =  2.0

     negative rho (up, down):  3.533E-02 0.000E+00

     total cpu time spent up to now is     4810.7 secs

     total energy              =   -5386.60770253 Ry
     estimated scf accuracy    <       0.00000004 Ry

     iteration # 49     ecut=    60.00 Ry     beta= 0.30
     Davidson diagonalization with overlap
     ethr =  4.41E-12,  avg # of iterations =  1.0

     negative rho (up, down):  3.533E-02 0.000E+00

     total cpu time spent up to now is     4818.0 secs

     total energy              =   -5386.60770254 Ry
     estimated scf accuracy    <       0.00000001 Ry

     iteration # 50     ecut=    60.00 Ry     beta= 0.30
     Davidson diagonalization with overlap
     ethr =  2.62E-12,  avg # of iterations =  2.0

     negative rho (up, down):  3.533E-02 0.000E+00

     total cpu time spent up to now is     4825.8 secs

     total energy              =   -5386.60770254 Ry
     estimated scf accuracy    <       0.00000001 Ry

     iteration # 51     ecut=    60.00 Ry     beta= 0.30
     Davidson diagonalization with overlap
     ethr =  2.61E-12,  avg # of iterations =  1.0

     negative rho (up, down):  3.533E-02 0.000E+00

     total cpu time spent up to now is     4833.1 secs

     total energy              =   -5386.60770253 Ry
     estimated scf accuracy    <          7.1E-09 Ry

     iteration # 52     ecut=    60.00 Ry     beta= 0.30
     Davidson diagonalization with overlap
     ethr =  1.27E-12,  avg # of iterations =  2.0

     negative rho (up, down):  3.533E-02 0.000E+00

     total cpu time spent up to now is     4841.0 secs

     total energy              =   -5386.60770253 Ry
     estimated scf accuracy    <       0.00000001 Ry

     iteration # 53     ecut=    60.00 Ry     beta= 0.30
     Davidson diagonalization with overlap
     ethr =  1.27E-12,  avg # of iterations =  1.0

     negative rho (up, down):  3.533E-02 0.000E+00

     total cpu time spent up to now is     4848.8 secs

     total energy              =   -5386.60770254 Ry
     estimated scf accuracy    <          7.2E-09 Ry

     iteration # 54     ecut=    60.00 Ry     beta= 0.30
     Davidson diagonalization with overlap
     ethr =  1.27E-12,  avg # of iterations =  2.0

     negative rho (up, down):  3.533E-02 0.000E+00

     total cpu time spent up to now is     4856.7 secs

     total energy              =   -5386.60770254 Ry
     estimated scf accuracy    <       0.00000002 Ry

     iteration # 55     ecut=    60.00 Ry     beta= 0.30
     Davidson diagonalization with overlap
     ethr =  1.27E-12,  avg # of iterations =  1.0

     negative rho (up, down):  3.533E-02 0.000E+00

     total cpu time spent up to now is     4866.2 secs

     total energy              =   -5386.60770254 Ry
     estimated scf accuracy    <          2.1E-09 Ry

     iteration # 56     ecut=    60.00 Ry     beta= 0.30
     Davidson diagonalization with overlap
     ethr =  3.78E-13,  avg # of iterations =  1.0

     negative rho (up, down):  3.533E-02 0.000E+00

     total cpu time spent up to now is     4873.5 secs

     total energy              =   -5386.60770253 Ry
     estimated scf accuracy    <          3.0E-09 Ry

     iteration # 57     ecut=    60.00 Ry     beta= 0.30
     Davidson diagonalization with overlap
     ethr =  3.78E-13,  avg # of iterations =  1.0

     negative rho (up, down):  3.533E-02 0.000E+00

     total cpu time spent up to now is     4880.7 secs

     total energy              =   -5386.60770254 Ry
     estimated scf accuracy    <          1.2E-09 Ry

     iteration # 58     ecut=    60.00 Ry     beta= 0.30
     Davidson diagonalization with overlap
     ethr =  2.22E-13,  avg # of iterations =  2.0

     negative rho (up, down):  3.533E-02 0.000E+00

     total cpu time spent up to now is     4888.6 secs

     total energy              =   -5386.60770254 Ry
     estimated scf accuracy    <          3.1E-09 Ry

     iteration # 59     ecut=    60.00 Ry     beta= 0.30
     Davidson diagonalization with overlap
     ethr =  2.22E-13,  avg # of iterations =  2.0

     negative rho (up, down):  3.533E-02 0.000E+00

     total cpu time spent up to now is     4896.7 secs

     total energy              =   -5386.60770254 Ry
     estimated scf accuracy    <          1.1E-09 Ry

     iteration # 60     ecut=    60.00 Ry     beta= 0.30
     Davidson diagonalization with overlap
     ethr =  2.02E-13,  avg # of iterations =  1.0

     negative rho (up, down):  3.533E-02 0.000E+00

     total cpu time spent up to now is     4904.0 secs

     End of self-consistent calculation

          k = 0.0000 0.0000 0.0000 ( 46961 PWs)   bands (ev):

   -69.5405 -69.5361 -69.5006 -69.4929 -69.4625 -69.4561 -69.4359 -69.4358
   -69.4316 -69.4221 -69.2295 -62.0528 -62.0400 -62.0206 -61.9826 -61.9592
   -61.8995 -61.8977 -61.8073 -61.7855 -61.7580 -54.3102 -54.2741 -54.2624
   -54.1175 -54.0012 -53.9574 -53.9559 -53.9259 -53.8857 -53.8209 -53.7401
   -41.0129 -40.9639 -40.9572 -40.9459 -40.9428 -40.9269 -40.8981 -40.8943
   -40.8892 -40.8784 -40.8735 -40.8691 -40.8618 -40.8564 -40.8384 -40.8260
   -40.8103 -40.7986 -40.7937 -40.7862 -40.7848 -40.7708 -40.7702 -40.7624
   -40.7534 -40.7406 -40.7232 -40.7212 -40.7184 -40.6821 -40.6659 -40.5902
   -40.4530 -36.0346 -35.9963 -35.9811 -35.9701 -35.9409 -35.9301 -35.9141
   -35.8795 -35.8567 -35.8521 -35.8489 -35.8338 -35.8231 -35.8125 -35.7973
   -35.7879 -35.7811 -35.7744 -35.7672 -35.7489 -35.7397 -35.7193 -35.7121
   -35.6822 -35.6751 -35.6671 -35.6239 -35.6055 -35.5506 -35.5000 -30.7809
   -30.7032 -30.6720 -30.5575 -30.5467 -30.5280 -30.5226 -30.5207 -30.5129
   -30.4945 -30.4687 -30.4361 -30.3943 -30.3880 -30.3860 -30.3640 -30.3458
   -30.3403 -30.3274 -30.3160 -30.2986 -30.2679 -30.2597 -30.2054 -30.1856
   -30.1641 -30.1558 -30.1082 -30.1050 -30.0894 -30.0505 -30.0208 -29.9796
   -21.6058 -16.3518 -10.7184  -9.6557  -9.2403  -9.1699  -9.0628  -8.9220
    -8.5877  -8.3767  -8.3376  -8.2825  -8.2167  -8.1260  -8.0694  -7.9383
    -7.9207  -7.7738  -7.6937  -7.6290  -7.5375  -7.4861  -7.4363  -7.4227
    -7.4015  -7.3631  -7.2828  -7.2665  -7.1399  -7.0361  -6.8549  -6.7918
    -6.7360  -6.6179  -6.4637  -4.2881  -4.2343  -4.1002  -3.9373  -3.8679
    -3.8004  -3.6953  -3.2298  -2.9552  -2.8314  -2.7147  -2.6795  -2.6173
    -2.5755  -2.4628  -2.4550  -2.3889  -2.3346  -2.3271  -2.1613  -2.0716
    -2.0346  -1.9452  -1.8049  -1.7927  -1.7614  -1.7264  -1.6143  -1.5361
    -1.4827  -1.4416  -1.4215  -1.3987  -1.3511  -1.3391  -1.3220  -1.3037
    -1.2934  -1.2776  -1.2540  -1.2406  -1.2041  -1.2023  -1.1767  -1.0690
    -1.0473  -1.0178  -1.0143  -0.9570  -0.9386  -0.8716  -0.8495  -0.7991
    -0.7784  -0.7384  -0.7161  -0.6964  -0.6709  -0.6387  -0.6227  -0.6070
    -0.5828  -0.5754  -0.5568  -0.5419  -0.5384  -0.5074  -0.4228  -0.3634
    -0.2949  -0.2480  -0.1791  -0.1502  -0.1038  -0.0666  -0.0101   0.0487
     0.0671   0.0881   0.1145   0.1618   0.2318   0.2809   0.2996   0.4949
     0.5125   0.6182   0.6448   0.7196   0.7943   0.8951   0.9533   1.0034
     1.1080   1.1100   1.2382   1.2701   1.3441   1.4433   1.4642   1.5130
     1.5307   1.7471   1.7879   1.8252   1.8492   1.9151   2.0516   2.1795
     2.2392   2.4141   2.6598   2.6646   2.7737   2.8426   2.9513   2.9871
     3.0087   3.0679   3.1067   3.1305   3.1703   3.2066   3.2285   3.2785
     3.2879   3.3090   3.3396   3.3656   3.3980   3.4029   3.4548   3.4610
     3.5018   3.5210   3.5551   3.5933   3.6776   3.6959   3.7275   3.7532
     3.7942   3.8125   3.8647   3.8898   3.9647   3.9778   4.0026   4.0210
     4.0852   4.0936   4.1213   4.1596   4.1876   4.2239   4.2542   4.2587
     4.2783   4.3359   4.3850   4.4192   4.4260   4.4724   4.5409   4.5759
     4.5900   4.6308   4.6645   4.7130   4.7241   4.8102   4.8558   4.8890
     4.9213

     the Fermi energy is     3.0142 ev

!    total energy              =   -5386.60770254 Ry
     estimated scf accuracy    <          4.9E-10 Ry
     smearing contrib. (-TS)   =      -0.03514415 Ry
     internal energy E=F+TS    =   -5386.57255838 Ry

     The total energy is F=E-TS. E is the sum of the following terms:
     one-electron contribution =  -55935.90431471 Ry
     hartree contribution      =   28001.32020133 Ry
     xc contribution           =    -807.42790689 Ry
     ewald contribution        =   23578.27161573 Ry
     one-center paw contrib.   =    -222.83215386 Ry

     convergence has been achieved in  60 iterations

     negative rho (up, down):  3.533E-02 0.000E+00

     Forces acting on atoms (cartesian axes, Ry/au):

     atom    1 type  1   force =     0.00198309   -0.00106923   -0.00102364
     atom    2 type  1   force =    -0.00336658   -0.00637216    0.00376635
     atom    3 type  1   force =    -0.01305982    0.03482748   -0.00329341
     atom    4 type  1   force =     0.00016033   -0.01505990    0.02955929
     atom    5 type  1   force =    -0.00363954    0.01148302   -0.00000727
     atom    6 type  1   force =     0.00805176   -0.00053281    0.02752419
     atom    7 type  1   force =    -0.00343489   -0.01812283   -0.02629926
     atom    8 type  1   force =     0.01028412    0.02535286   -0.00385582
     atom    9 type  1   force =    -0.01519021   -0.00199272   -0.03337321
     atom   10 type  1   force =     0.00580855    0.00587226   -0.00380235
     atom   11 type  1   force =    -0.00332715    0.00350518    0.00079530
     atom   12 type  2   force =     0.00323421    0.00211496   -0.01142331
     atom   13 type  2   force =     0.00571952   -0.00317768   -0.00225447
     atom   14 type  2   force =     0.02270874   -0.00693309    0.01990675
     atom   15 type  2   force =    -0.01186902    0.00004848    0.11302375
     atom   16 type  2   force =     0.00508128    0.00071555    0.09565355
     atom   17 type  2   force =    -0.04763054   -0.02130145   -0.02806667
     atom   18 type  2   force =     0.00792829    0.02683074   -0.02849073
     atom   19 type  2   force =    -0.00938194    0.02096075   -0.03133021
     atom   20 type  2   force =    -0.00115914   -0.01188995    0.00186677
     atom   21 type  2   force =     0.00711176    0.01505877   -0.00539170
     atom   22 type  3   force =     0.00459843   -0.00050370    0.00435561
     atom   23 type  3   force =    -0.02266867   -0.01158751   -0.00300330
     atom   24 type  3   force =     0.01799137    0.01883838   -0.01667815
     atom   25 type  3   force =     0.01557391   -0.01369111    0.06399844
     atom   26 type  3   force =    -0.00358527    0.01190505    0.12420456
     atom   27 type  3   force =     0.03375630   -0.00580164   -0.00349279
     atom   28 type  3   force =    -0.00639611    0.00129551    0.04039229
     atom   29 type  3   force =     0.00876572    0.00156343    0.01034071
     atom   30 type  3   force =     0.00229685    0.00432658    0.00920749
     atom   31 type  3   force =     0.00347299   -0.00069597   -0.01022650
     atom   32 type  3   force =    -0.00905990   -0.00174021   -0.00880089
     atom   33 type  4   force =     0.00001494   -0.00812977   -0.03469874
     atom   34 type  4   force =     0.00907367    0.01249637   -0.00528418
     atom   35 type  4   force =    -0.00198346   -0.01753940   -0.02273265
     atom   36 type  4   force =     0.00079081    0.01003220   -0.03513183
     atom   37 type  4   force =     0.00334059    0.00170761    0.02831637
     atom   38 type  4   force =     0.00615712   -0.01603778    0.02863871
     atom   39 type  4   force =     0.00854700   -0.00628398    0.02288025
     atom   40 type  4   force =     0.00505713   -0.01079249    0.00861263
     atom   41 type  4   force =    -0.00504792   -0.00046429   -0.00381051
     atom   42 type  4   force =    -0.00352614    0.00008715    0.00229223
     atom   43 type  4   force =     0.00157926   -0.00265664   -0.00210815
     atom   44 type  4   force =    -0.00430967    0.00168320   -0.00268192
     atom   45 type  4   force =     0.00709027    0.00664372   -0.03979334
     atom   46 type  4   force =     0.00325682   -0.00076295   -0.04347082
     atom   47 type  4   force =    -0.00640899    0.00042042   -0.02783305
     atom   48 type  4   force =    -0.01250887   -0.00955143   -0.02262631
     atom   49 type  4   force =    -0.01163738   -0.00153189   -0.00541224
     atom   50 type  4   force =    -0.00005117   -0.00890160   -0.00200662
     atom   51 type  4   force =    -0.00735036   -0.00122581   -0.00556793
     atom   52 type  4   force =    -0.00388737    0.00180050    0.00524934
     atom   53 type  4   force =    -0.00229310    0.00156075   -0.02695535
     atom   54 type  4   force =    -0.00606025    0.00515818   -0.03835137
     atom   55 type  4   force =    -0.00154248    0.00442679   -0.03079925
     atom   56 type  4   force =    -0.00174302   -0.00885252   -0.02847118
     atom   57 type  4   force =    -0.01617327    0.00857703   -0.02779183
     atom   58 type  4   force =    -0.00926715   -0.00549310   -0.03898829
     atom   59 type  4   force =     0.01415019    0.01193177   -0.03124218
     atom   60 type  4   force =     0.00217434   -0.01014017   -0.02263185
     atom   61 type  4   force =     0.00825840   -0.00627034    0.01457873
     atom   62 type  4   force =     0.00319095   -0.00723380    0.02850382
     atom   63 type  4   force =     0.00686721   -0.00564899    0.00185332
     atom   64 type  4   force =     0.00277214   -0.00640795    0.03034529
     atom   65 type  4   force =     0.00235818   -0.00456339    0.02507998
     atom   66 type  5   force =    -0.00224383    0.00500579   -0.02564481
     atom   67 type  5   force =     0.00597324   -0.00122026   -0.00189753
     atom   68 type  6   force =    -0.00537627    0.00395000    0.00579987

     Total force =     0.050861     Total SCF correction =     0.000029
     Energy error            =      2.0E-03 Ry
     Gradient error          =      2.6E-02 Ry/Bohr

     number of scf cycles    =  12
     number of bfgs steps    =  11

     energy             old  =   -5386.6057264768 Ry
     energy             new  =   -5386.6077025362 Ry

     CASE: energy            _new < energy            _old

     new trust radius        =       0.0624178797 bohr
     new conv_thr            =       0.0000000026 Ry


ATOMIC_POSITIONS (angstrom)
Ti               0.0544737523        0.0096912664       16.1722027871
Ti               0.0291331002        8.3621570543       11.5803477355    0   0   0
Ti               2.0975368417        4.1651924041       13.6995846818    0   0   0
Ti               8.3795041056        2.0957563981        9.4724378689    0   0   0
Ti               8.3750099733        6.2687152092        9.4933225157    0   0   0
Ti               4.2170671874        6.2898439467        9.4911460380    0   0   0
Ti               8.3706959315        2.0992468883       13.7196199333    0   0   0
Ti               8.3814371399        6.2587905921       13.6914936631    0   0   0
Ti               4.2074509867        6.2621252961       13.6953624844    0   0   0
Ti               2.1320903102        6.2068444857       15.8131241566
Ti               6.3189809225        6.2564490012       15.7451026065
V                8.4223199606        4.0651042369       15.7247639785
V                4.2741219792        4.0359849448       15.6555896825
V                4.1453105473        4.2119457891       11.5975026988    0   0   0
V                2.1879867013        0.0520231596        9.5054883674    0   0   0
V                2.1522427348        4.1319303501        9.4904675789    0   0   0
V                2.0919720210       -0.0034525136       13.6809547049    0   0   0
V                6.2957223951        4.1813414611       13.7896152224    0   0   0
V                4.2104512702        2.0785028673       13.6089365586    0   0   0
V                2.1048639148        6.2714192178       11.5723879270    0   0   0
V                6.3158808164        6.1438819511       11.5700667150    0   0   0
Cr               4.2363930271       -0.0328743021       15.5393828211
Cr               0.1179128009        4.1786640750       11.5195623927    0   0   0
Cr               4.1681598842        8.2577799257       11.6615352591    0   0   0
Cr               6.1999882077        0.1106418811        9.6948923906    0   0   0
Cr               6.2007452456        4.0563627707        9.3394942948    0   0   0
Cr               6.3039559766        8.3200573949       13.5345114413    0   0   0
Cr               4.2149984025        2.0754774019        9.7444374941    0   0   0
Cr               2.2725738034        2.0128140569       15.5586324740
Cr               6.2635849393        1.9534797357       15.5471685199
Cr               2.0054620409        2.1149661174       11.6192682974    0   0   0
Cr               6.3992485267        2.2488278238       11.6549867199    0   0   0
C                8.3671464633        0.0123762133        9.4921945368    0   0   0
C                8.3685510870        4.1683341954        9.4949958325    0   0   0
C                4.2233794382        0.0660683478        9.5137772640    0   0   0
C                4.2071394793        4.1170355077        9.4900603783    0   0   0
C                8.3753352139       -0.0047460034       13.6879749419    0   0   0
C                8.3555577743        4.1752016178       13.6998947017    0   0   0
C                4.2131653834        0.0054873094       13.6688163572    0   0   0
C                4.2220181648        4.1373219388       13.6924183861    0   0   0
C                2.1649051569        0.1405677893       15.8989369904
C                2.0943245689        4.1146143962       15.9557497361
C                6.1779435208        0.1228907120       15.8902466013
C                6.2433012319        4.1869559397       15.9244662581
C                2.1521326937        0.0175132539       11.5903255372    0   0   0
C                2.1078429860        4.1683083653       11.5671868517    0   0   0
C                6.2417937451        0.0188099573       11.6002801854    0   0   0
C                6.3283074126        4.1569384024       11.5682471185    0   0   0
C                8.2124233247        2.1793069074       15.8442071745
C                8.3497039302        6.3487557369       15.8489101726
C                4.1804815208        2.0852825863       15.7739526073
C                4.2001682147        6.4617010512       15.8634869466
C                0.0147673152        2.1438801594       11.5939557114    0   0   0
C                0.0200697416        6.2277703895       11.5821679336    0   0   0
C                4.2182428542        2.0594943016       11.6100232202    0   0   0
C                4.2117703951        6.2583221129       11.5919858628    0   0   0
C                2.1713130363        2.0860319016        9.4919958919    0   0   0
C                2.1164500536        6.2753611976        9.5156635851    0   0   0
C                6.2203151227        2.0809934926        9.4961719556    0   0   0
C                6.2861737462        6.2618311600        9.5257047400    0   0   0
C                2.1349207790        2.0551228178       13.6855329086    0   0   0
C                2.1043015435        6.2915359703       13.6724452320    0   0   0
C                6.2612712230        2.0678980813       13.6766563617    0   0   0
C                6.2981398968        6.2588382292       13.6653030130    0   0   0
C                2.1559207040        6.0799040908       18.0131828092
O                2.2067149543        5.9322230383       19.1520993264
O                8.3480372292        0.0764863902       18.0127266115
H                7.6588401525        0.4586578046       18.5717093254



     Writing config-only to output data dir ./tmp/hec3_CrTiV_f100_COOH_ads.save/ :
     XML data file
     NEW-OLD atomic charge density approx. for the potential

     Check: negative core charge=   -0.000005

     negative rho (up, down):  3.533E-02 0.000E+00

     total cpu time spent up to now is     4916.8 secs

     Self-consistent Calculation

     iteration #  1     ecut=    60.00 Ry     beta= 0.30
     Davidson diagonalization with overlap
     ethr =  1.00E-06,  avg # of iterations =  7.0

     negative rho (up, down):  3.533E-02 0.000E+00

     total cpu time spent up to now is     4928.8 secs

     total energy              =   -5386.60777038 Ry
     estimated scf accuracy    <       0.00674756 Ry

     iteration #  2     ecut=    60.00 Ry     beta= 0.30
     Davidson diagonalization with overlap
     ethr =  1.20E-06,  avg # of iterations = 11.0

     negative rho (up, down):  3.532E-02 0.000E+00

     total cpu time spent up to now is     4940.2 secs

     total energy              =   -5386.60365106 Ry
     estimated scf accuracy    <       0.13963183 Ry

     iteration #  3     ecut=    60.00 Ry     beta= 0.30
     Davidson diagonalization with overlap
     c_bands:  1 eigenvalues not converged
     ethr =  1.20E-06,  avg # of iterations = 20.0

     negative rho (up, down):  3.531E-02 0.000E+00

     total cpu time spent up to now is     4953.7 secs

     total energy              =   -5386.60599789 Ry
     estimated scf accuracy    <       0.15298632 Ry

     iteration #  4     ecut=    60.00 Ry     beta= 0.30
     Davidson diagonalization with overlap
     c_bands:  2 eigenvalues not converged
     ethr =  1.20E-06,  avg # of iterations = 20.0

     negative rho (up, down):  3.534E-02 0.000E+00

     total cpu time spent up to now is     4967.5 secs

     total energy              =   -5386.60809146 Ry
     estimated scf accuracy    <       0.03562768 Ry

     iteration #  5     ecut=    60.00 Ry     beta= 0.30
     Davidson diagonalization with overlap
     ethr =  1.20E-06,  avg # of iterations =  5.0

     negative rho (up, down):  3.533E-02 0.000E+00

     total cpu time spent up to now is     4975.9 secs

     total energy              =   -5386.60860283 Ry
     estimated scf accuracy    <       0.01551627 Ry

     iteration #  6     ecut=    60.00 Ry     beta= 0.30
     Davidson diagonalization with overlap
     ethr =  1.20E-06,  avg # of iterations =  2.0

     negative rho (up, down):  3.533E-02 0.000E+00

     total cpu time spent up to now is     4983.2 secs

     total energy              =   -5386.60859339 Ry
     estimated scf accuracy    <       0.01529535 Ry

     iteration #  7     ecut=    60.00 Ry     beta= 0.30
     Davidson diagonalization with overlap
     ethr =  1.20E-06,  avg # of iterations =  2.0

     negative rho (up, down):  3.534E-02 0.000E+00

     total cpu time spent up to now is     4990.3 secs

     total energy              =   -5386.60890266 Ry
     estimated scf accuracy    <       0.00630549 Ry

     iteration #  8     ecut=    60.00 Ry     beta= 0.30
     Davidson diagonalization with overlap
     ethr =  1.12E-06,  avg # of iterations =  1.0

     negative rho (up, down):  3.534E-02 0.000E+00

     total cpu time spent up to now is     4997.2 secs

     total energy              =   -5386.60905150 Ry
     estimated scf accuracy    <       0.00352873 Ry

     iteration #  9     ecut=    60.00 Ry     beta= 0.30
     Davidson diagonalization with overlap
     ethr =  6.29E-07,  avg # of iterations =  1.0

     negative rho (up, down):  3.534E-02 0.000E+00

     total cpu time spent up to now is     5004.3 secs

     total energy              =   -5386.60917015 Ry
     estimated scf accuracy    <       0.00063607 Ry

     iteration # 10     ecut=    60.00 Ry     beta= 0.30
     Davidson diagonalization with overlap
     ethr =  1.13E-07,  avg # of iterations =  2.0

     negative rho (up, down):  3.534E-02 0.000E+00

     total cpu time spent up to now is     5011.6 secs

     total energy              =   -5386.60918664 Ry
     estimated scf accuracy    <       0.00043011 Ry

     iteration # 11     ecut=    60.00 Ry     beta= 0.30
     Davidson diagonalization with overlap
     ethr =  7.67E-08,  avg # of iterations =  2.0

     negative rho (up, down):  3.534E-02 0.000E+00

     total cpu time spent up to now is     5018.8 secs

     total energy              =   -5386.60919543 Ry
     estimated scf accuracy    <       0.00040158 Ry

     iteration # 12     ecut=    60.00 Ry     beta= 0.30
     Davidson diagonalization with overlap
     ethr =  7.16E-08,  avg # of iterations =  2.0

     negative rho (up, down):  3.534E-02 0.000E+00

     total cpu time spent up to now is     5026.0 secs

     total energy              =   -5386.60921213 Ry
     estimated scf accuracy    <       0.00015896 Ry

     iteration # 13     ecut=    60.00 Ry     beta= 0.30
     Davidson diagonalization with overlap
     ethr =  2.83E-08,  avg # of iterations =  2.0

     negative rho (up, down):  3.534E-02 0.000E+00

     total cpu time spent up to now is     5033.6 secs

     total energy              =   -5386.60921513 Ry
     estimated scf accuracy    <       0.00024521 Ry

     iteration # 14     ecut=    60.00 Ry     beta= 0.30
     Davidson diagonalization with overlap
     ethr =  2.83E-08,  avg # of iterations =  1.0

     negative rho (up, down):  3.534E-02 0.000E+00

     total cpu time spent up to now is     5040.1 secs

     total energy              =   -5386.60922085 Ry
     estimated scf accuracy    <       0.00007036 Ry

     iteration # 15     ecut=    60.00 Ry     beta= 0.30
     Davidson diagonalization with overlap
     ethr =  1.25E-08,  avg # of iterations =  2.0

     negative rho (up, down):  3.534E-02 0.000E+00

     total cpu time spent up to now is     5047.4 secs

     total energy              =   -5386.60921994 Ry
     estimated scf accuracy    <       0.00010898 Ry

     iteration # 16     ecut=    60.00 Ry     beta= 0.30
     Davidson diagonalization with overlap
     ethr =  1.25E-08,  avg # of iterations =  1.0

     negative rho (up, down):  3.534E-02 0.000E+00

     total cpu time spent up to now is     5054.5 secs

     total energy              =   -5386.60922183 Ry
     estimated scf accuracy    <       0.00007380 Ry

     iteration # 17     ecut=    60.00 Ry     beta= 0.30
     Davidson diagonalization with overlap
     ethr =  1.25E-08,  avg # of iterations =  1.0

     negative rho (up, down):  3.534E-02 0.000E+00

     total cpu time spent up to now is     5061.4 secs

     total energy              =   -5386.60922278 Ry
     estimated scf accuracy    <       0.00004622 Ry

     iteration # 18     ecut=    60.00 Ry     beta= 0.30
     Davidson diagonalization with overlap
     ethr =  8.24E-09,  avg # of iterations =  1.0

     negative rho (up, down):  3.534E-02 0.000E+00

     total cpu time spent up to now is     5067.9 secs

     total energy              =   -5386.60922351 Ry
     estimated scf accuracy    <       0.00001402 Ry

     iteration # 19     ecut=    60.00 Ry     beta= 0.30
     Davidson diagonalization with overlap
     ethr =  2.50E-09,  avg # of iterations =  2.0

     negative rho (up, down):  3.534E-02 0.000E+00

     total cpu time spent up to now is     5075.0 secs

     total energy              =   -5386.60922352 Ry
     estimated scf accuracy    <       0.00001965 Ry

     iteration # 20     ecut=    60.00 Ry     beta= 0.30
     Davidson diagonalization with overlap
     ethr =  2.50E-09,  avg # of iterations =  1.0

     negative rho (up, down):  3.534E-02 0.000E+00

     total cpu time spent up to now is     5081.6 secs

     total energy              =   -5386.60922406 Ry
     estimated scf accuracy    <       0.00000680 Ry

     iteration # 21     ecut=    60.00 Ry     beta= 0.30
     Davidson diagonalization with overlap
     ethr =  1.21E-09,  avg # of iterations =  2.0

     negative rho (up, down):  3.534E-02 0.000E+00

     total cpu time spent up to now is     5089.1 secs

     total energy              =   -5386.60922417 Ry
     estimated scf accuracy    <       0.00000803 Ry

     iteration # 22     ecut=    60.00 Ry     beta= 0.30
     Davidson diagonalization with overlap
     ethr =  1.21E-09,  avg # of iterations =  1.0

     negative rho (up, down):  3.534E-02 0.000E+00

     total cpu time spent up to now is     5095.7 secs

     total energy              =   -5386.60922435 Ry
     estimated scf accuracy    <       0.00000462 Ry

     iteration # 23     ecut=    60.00 Ry     beta= 0.30
     Davidson diagonalization with overlap
     ethr =  8.23E-10,  avg # of iterations =  2.0

     negative rho (up, down):  3.534E-02 0.000E+00

     total cpu time spent up to now is     5102.7 secs

     total energy              =   -5386.60922426 Ry
     estimated scf accuracy    <       0.00000755 Ry

     iteration # 24     ecut=    60.00 Ry     beta= 0.30
     Davidson diagonalization with overlap
     ethr =  8.23E-10,  avg # of iterations =  2.0

     negative rho (up, down):  3.534E-02 0.000E+00

     total cpu time spent up to now is     5110.1 secs

     total energy              =   -5386.60922423 Ry
     estimated scf accuracy    <       0.00001459 Ry

     iteration # 25     ecut=    60.00 Ry     beta= 0.30
     Davidson diagonalization with overlap
     ethr =  8.23E-10,  avg # of iterations =  1.0

     negative rho (up, down):  3.534E-02 0.000E+00

     total cpu time spent up to now is     5117.0 secs

     total energy              =   -5386.60922442 Ry
     estimated scf accuracy    <       0.00000511 Ry

     iteration # 26     ecut=    60.00 Ry     beta= 0.30
     Davidson diagonalization with overlap
     ethr =  8.23E-10,  avg # of iterations =  1.0

     negative rho (up, down):  3.534E-02 0.000E+00

     total cpu time spent up to now is     5123.5 secs

     total energy              =   -5386.60922449 Ry
     estimated scf accuracy    <       0.00000550 Ry

     iteration # 27     ecut=    60.00 Ry     beta= 0.30
     Davidson diagonalization with overlap
     ethr =  8.23E-10,  avg # of iterations =  1.0

     negative rho (up, down):  3.534E-02 0.000E+00

     total cpu time spent up to now is     5130.2 secs

     total energy              =   -5386.60922459 Ry
     estimated scf accuracy    <       0.00000158 Ry

     iteration # 28     ecut=    60.00 Ry     beta= 0.30
     Davidson diagonalization with overlap
     ethr =  2.82E-10,  avg # of iterations =  1.0

     negative rho (up, down):  3.534E-02 0.000E+00

     total cpu time spent up to now is     5136.7 secs

     total energy              =   -5386.60922461 Ry
     estimated scf accuracy    <       0.00000074 Ry

     iteration # 29     ecut=    60.00 Ry     beta= 0.30
     Davidson diagonalization with overlap
     ethr =  1.33E-10,  avg # of iterations =  1.0

     negative rho (up, down):  3.534E-02 0.000E+00

     total cpu time spent up to now is     5143.3 secs

     total energy              =   -5386.60922461 Ry
     estimated scf accuracy    <       0.00000082 Ry

     iteration # 30     ecut=    60.00 Ry     beta= 0.30
     Davidson diagonalization with overlap
     ethr =  1.33E-10,  avg # of iterations =  1.0

     negative rho (up, down):  3.534E-02 0.000E+00

     total cpu time spent up to now is     5150.3 secs

     total energy              =   -5386.60922463 Ry
     estimated scf accuracy    <       0.00000054 Ry

     iteration # 31     ecut=    60.00 Ry     beta= 0.30
     Davidson diagonalization with overlap
     ethr =  9.58E-11,  avg # of iterations =  1.0

     negative rho (up, down):  3.534E-02 0.000E+00

     total cpu time spent up to now is     5156.9 secs

     total energy              =   -5386.60922465 Ry
     estimated scf accuracy    <       0.00000029 Ry

     iteration # 32     ecut=    60.00 Ry     beta= 0.30
     Davidson diagonalization with overlap
     ethr =  5.10E-11,  avg # of iterations =  1.0

     negative rho (up, down):  3.534E-02 0.000E+00

     total cpu time spent up to now is     5163.9 secs

     total energy              =   -5386.60922466 Ry
     estimated scf accuracy    <       0.00000018 Ry

     iteration # 33     ecut=    60.00 Ry     beta= 0.30
     Davidson diagonalization with overlap
     ethr =  3.25E-11,  avg # of iterations =  1.0

     negative rho (up, down):  3.534E-02 0.000E+00

     total cpu time spent up to now is     5170.5 secs

     total energy              =   -5386.60922465 Ry
     estimated scf accuracy    <       0.00000025 Ry

     iteration # 34     ecut=    60.00 Ry     beta= 0.30
     Davidson diagonalization with overlap
     ethr =  3.25E-11,  avg # of iterations =  2.0

     negative rho (up, down):  3.534E-02 0.000E+00

     total cpu time spent up to now is     5177.9 secs

     total energy              =   -5386.60922465 Ry
     estimated scf accuracy    <       0.00000056 Ry

     iteration # 35     ecut=    60.00 Ry     beta= 0.30
     Davidson diagonalization with overlap
     ethr =  3.25E-11,  avg # of iterations =  2.0

     negative rho (up, down):  3.534E-02 0.000E+00

     total cpu time spent up to now is     5185.3 secs

     total energy              =   -5386.60922465 Ry
     estimated scf accuracy    <       0.00000047 Ry

     iteration # 36     ecut=    60.00 Ry     beta= 0.30
     Davidson diagonalization with overlap
     ethr =  3.25E-11,  avg # of iterations =  2.0

     negative rho (up, down):  3.534E-02 0.000E+00

     total cpu time spent up to now is     5192.9 secs

     total energy              =   -5386.60922464 Ry
     estimated scf accuracy    <       0.00000092 Ry

     iteration # 37     ecut=    60.00 Ry     beta= 0.30
     Davidson diagonalization with overlap
     ethr =  3.25E-11,  avg # of iterations =  1.0

     negative rho (up, down):  3.534E-02 0.000E+00

     total cpu time spent up to now is     5199.6 secs

     total energy              =   -5386.60922466 Ry
     estimated scf accuracy    <       0.00000013 Ry

     iteration # 38     ecut=    60.00 Ry     beta= 0.30
     Davidson diagonalization with overlap
     ethr =  2.34E-11,  avg # of iterations =  1.0

     negative rho (up, down):  3.534E-02 0.000E+00

     total cpu time spent up to now is     5206.4 secs

     total energy              =   -5386.60922467 Ry
     estimated scf accuracy    <       0.00000006 Ry

     iteration # 39     ecut=    60.00 Ry     beta= 0.30
     Davidson diagonalization with overlap
     ethr =  1.01E-11,  avg # of iterations =  1.0

     negative rho (up, down):  3.534E-02 0.000E+00

     total cpu time spent up to now is     5213.3 secs

     total energy              =   -5386.60922467 Ry
     estimated scf accuracy    <       0.00000005 Ry

     iteration # 40     ecut=    60.00 Ry     beta= 0.30
     Davidson diagonalization with overlap
     ethr =  9.13E-12,  avg # of iterations =  2.0

     negative rho (up, down):  3.534E-02 0.000E+00

     total cpu time spent up to now is     5220.4 secs

     total energy              =   -5386.60922467 Ry
     estimated scf accuracy    <       0.00000007 Ry

     iteration # 41     ecut=    60.00 Ry     beta= 0.30
     Davidson diagonalization with overlap
     ethr =  9.13E-12,  avg # of iterations =  1.0

     negative rho (up, down):  3.534E-02 0.000E+00

     total cpu time spent up to now is     5227.5 secs

     total energy              =   -5386.60922467 Ry
     estimated scf accuracy    <       0.00000002 Ry

     iteration # 42     ecut=    60.00 Ry     beta= 0.30
     Davidson diagonalization with overlap
     ethr =  4.26E-12,  avg # of iterations =  1.0

     negative rho (up, down):  3.534E-02 0.000E+00

     total cpu time spent up to now is     5234.5 secs

     total energy              =   -5386.60922467 Ry
     estimated scf accuracy    <       0.00000001 Ry

     iteration # 43     ecut=    60.00 Ry     beta= 0.30
     Davidson diagonalization with overlap
     ethr =  2.25E-12,  avg # of iterations =  1.0

     negative rho (up, down):  3.534E-02 0.000E+00

     total cpu time spent up to now is     5241.3 secs

     total energy              =   -5386.60922467 Ry
     estimated scf accuracy    <          9.5E-09 Ry

     iteration # 44     ecut=    60.00 Ry     beta= 0.30
     Davidson diagonalization with overlap
     ethr =  1.70E-12,  avg # of iterations =  1.0

     negative rho (up, down):  3.534E-02 0.000E+00

     total cpu time spent up to now is     5247.8 secs

     total energy              =   -5386.60922467 Ry
     estimated scf accuracy    <       0.00000002 Ry

     iteration # 45     ecut=    60.00 Ry     beta= 0.30
     Davidson diagonalization with overlap
     ethr =  1.70E-12,  avg # of iterations =  2.0

     negative rho (up, down):  3.534E-02 0.000E+00

     total cpu time spent up to now is     5254.9 secs

     total energy              =   -5386.60922467 Ry
     estimated scf accuracy    <       0.00000003 Ry

     iteration # 46     ecut=    60.00 Ry     beta= 0.30
     Davidson diagonalization with overlap
     ethr =  1.70E-12,  avg # of iterations =  2.0

     negative rho (up, down):  3.534E-02 0.000E+00

     total cpu time spent up to now is     5262.0 secs

     total energy              =   -5386.60922467 Ry
     estimated scf accuracy    <       0.00000003 Ry

     iteration # 47     ecut=    60.00 Ry     beta= 0.30
     Davidson diagonalization with overlap
     ethr =  1.70E-12,  avg # of iterations =  1.0

     negative rho (up, down):  3.534E-02 0.000E+00

     total cpu time spent up to now is     5269.3 secs

     total energy              =   -5386.60922467 Ry
     estimated scf accuracy    <       0.00000001 Ry

     iteration # 48     ecut=    60.00 Ry     beta= 0.30
     Davidson diagonalization with overlap
     ethr =  1.70E-12,  avg # of iterations =  1.0

     negative rho (up, down):  3.534E-02 0.000E+00

     total cpu time spent up to now is     5276.2 secs

     total energy              =   -5386.60922467 Ry
     estimated scf accuracy    <          5.1E-09 Ry

     iteration # 49     ecut=    60.00 Ry     beta= 0.30
     Davidson diagonalization with overlap
     ethr =  9.14E-13,  avg # of iterations =  2.0

     negative rho (up, down):  3.534E-02 0.000E+00

     total cpu time spent up to now is     5283.8 secs

     total energy              =   -5386.60922467 Ry
     estimated scf accuracy    <          6.7E-09 Ry

     iteration # 50     ecut=    60.00 Ry     beta= 0.30
     Davidson diagonalization with overlap
     ethr =  9.14E-13,  avg # of iterations =  1.0

     negative rho (up, down):  3.534E-02 0.000E+00

     total cpu time spent up to now is     5290.6 secs

     total energy              =   -5386.60922467 Ry
     estimated scf accuracy    <          3.0E-09 Ry

     iteration # 51     ecut=    60.00 Ry     beta= 0.30
     Davidson diagonalization with overlap
     ethr =  5.43E-13,  avg # of iterations =  1.0

     negative rho (up, down):  3.534E-02 0.000E+00

     total cpu time spent up to now is     5298.1 secs

     End of self-consistent calculation

          k = 0.0000 0.0000 0.0000 ( 46961 PWs)   bands (ev):

   -69.5552 -69.5403 -69.5069 -69.4981 -69.4744 -69.4619 -69.4416 -69.4384
   -69.4369 -69.4291 -69.2354 -62.0589 -62.0455 -62.0273 -61.9892 -61.9765
   -61.9046 -61.9040 -61.8142 -61.7747 -61.7609 -54.3133 -54.2822 -54.2702
   -54.1272 -54.0107 -53.9747 -53.9638 -53.9386 -53.8691 -53.8194 -53.7602
   -41.0181 -40.9753 -40.9697 -40.9545 -40.9483 -40.9363 -40.9040 -40.9034
   -40.8948 -40.8859 -40.8817 -40.8759 -40.8708 -40.8633 -40.8442 -40.8315
   -40.8211 -40.8045 -40.8033 -40.7915 -40.7898 -40.7768 -40.7743 -40.7678
   -40.7618 -40.7573 -40.7288 -40.7258 -40.7251 -40.6856 -40.6713 -40.5964
   -40.4591 -36.0376 -36.0022 -35.9915 -35.9762 -35.9474 -35.9368 -35.9226
   -35.8864 -35.8705 -35.8649 -35.8563 -35.8410 -35.8291 -35.8188 -35.8059
   -35.7973 -35.7874 -35.7810 -35.7767 -35.7554 -35.7451 -35.7269 -35.7011
   -35.6830 -35.6778 -35.6692 -35.6153 -35.6060 -35.5528 -35.5044 -30.7796
   -30.7121 -30.6800 -30.5614 -30.5548 -30.5380 -30.5300 -30.5280 -30.5205
   -30.4998 -30.4788 -30.4454 -30.4021 -30.3980 -30.3966 -30.3775 -30.3543
   -30.3482 -30.3340 -30.3261 -30.3071 -30.2716 -30.2682 -30.2143 -30.1945
   -30.1664 -30.1532 -30.1105 -30.1023 -30.1002 -30.0539 -30.0287 -29.9905
   -21.5828 -16.3094 -10.7241  -9.6619  -9.2465  -9.1755  -9.0678  -8.9265
    -8.5935  -8.3828  -8.3427  -8.2860  -8.2219  -8.1314  -8.0746  -7.9446
    -7.9279  -7.7782  -7.7000  -7.6360  -7.5443  -7.4889  -7.4421  -7.4293
    -7.4120  -7.3705  -7.2934  -7.2803  -7.1451  -7.0433  -6.8622  -6.8001
    -6.7320  -6.6081  -6.4726  -4.2642  -4.2142  -4.0748  -3.9442  -3.8719
    -3.8038  -3.7031  -3.2185  -2.9620  -2.8392  -2.7181  -2.6788  -2.6236
    -2.5824  -2.4679  -2.4575  -2.3945  -2.3391  -2.3342  -2.1691  -2.0763
    -2.0409  -1.9512  -1.8143  -1.8004  -1.7689  -1.7332  -1.6221  -1.5420
    -1.4824  -1.4463  -1.4275  -1.4055  -1.3630  -1.3463  -1.3286  -1.3104
    -1.3006  -1.2851  -1.2617  -1.2480  -1.2183  -1.2090  -1.1836  -1.0745
    -1.0538  -1.0351  -1.0207  -0.9683  -0.9438  -0.8817  -0.8569  -0.8034
    -0.7826  -0.7445  -0.7199  -0.7032  -0.6713  -0.6371  -0.6238  -0.6099
    -0.5873  -0.5804  -0.5650  -0.5486  -0.5426  -0.5134  -0.4418  -0.3705
    -0.2850  -0.2470  -0.1858  -0.1527  -0.1030  -0.0675  -0.0145   0.0485
     0.0644   0.0903   0.1062   0.1538   0.2270   0.2824   0.3006   0.4824
     0.5029   0.6001   0.6369   0.7117   0.7885   0.8840   0.9497   1.0009
     1.0913   1.0998   1.2233   1.2605   1.3389   1.4368   1.4559   1.5002
     1.5229   1.7350   1.7725   1.8138   1.8376   1.9094   2.0055   2.1826
     2.2326   2.3798   2.6532   2.6623   2.7677   2.8372   2.9470   2.9815
     3.0014   3.0684   3.1017   3.1235   3.1693   3.1960   3.2232   3.2745
     3.2822   3.3054   3.3284   3.3561   3.3903   3.3978   3.4421   3.4589
     3.4968   3.5127   3.5472   3.5884   3.6805   3.6903   3.7193   3.7493
     3.7861   3.8181   3.8583   3.8900   3.9560   3.9708   3.9970   4.0150
     4.0770   4.0874   4.1106   4.1534   4.1801   4.2200   4.2526   4.2620
     4.2731   4.3393   4.3795   4.4192   4.4252   4.4640   4.5354   4.5814
     4.5838   4.6388   4.6635   4.7038   4.7164   4.8082   4.8572   4.8831
     4.9074

     the Fermi energy is     3.0094 ev

!    total energy              =   -5386.60922467 Ry
     estimated scf accuracy    <          2.4E-09 Ry
     smearing contrib. (-TS)   =      -0.03579553 Ry
     internal energy E=F+TS    =   -5386.57342914 Ry

     The total energy is F=E-TS. E is the sum of the following terms:
     one-electron contribution =  -55929.07264144 Ry
     hartree contribution      =   27997.79166293 Ry
     xc contribution           =    -807.43962644 Ry
     ewald contribution        =   23574.98016700 Ry
     one-center paw contrib.   =    -222.83299119 Ry

     convergence has been achieved in  51 iterations

     negative rho (up, down):  3.534E-02 0.000E+00

     Forces acting on atoms (cartesian axes, Ry/au):

     atom    1 type  1   force =    -0.00007029    0.00104539    0.00192725
     atom    2 type  1   force =    -0.00349313   -0.00622217    0.00374194
     atom    3 type  1   force =    -0.01322305    0.03364100   -0.00268603
     atom    4 type  1   force =    -0.00006501   -0.01503257    0.02937432
     atom    5 type  1   force =    -0.00379630    0.01147460    0.00025723
     atom    6 type  1   force =     0.00802658   -0.00050582    0.02764611
     atom    7 type  1   force =    -0.00425865   -0.01649130   -0.02792726
     atom    8 type  1   force =     0.00983515    0.02412763   -0.00762668
     atom    9 type  1   force =    -0.01614665   -0.00104787   -0.03456341
     atom   10 type  1   force =     0.00537997    0.00618886   -0.00047936
     atom   11 type  1   force =    -0.00211247    0.00493928    0.00488972
     atom   12 type  2   force =     0.00048121    0.00169168   -0.01456451
     atom   13 type  2   force =     0.00477443    0.00241777   -0.00279650
     atom   14 type  2   force =     0.02242802   -0.00683177    0.01965444
     atom   15 type  2   force =    -0.01197280    0.00008585    0.11289844
     atom   16 type  2   force =     0.00513349    0.00069508    0.09572386
     atom   17 type  2   force =    -0.04808827   -0.02038660   -0.02642060
     atom   18 type  2   force =     0.00690386    0.02635259   -0.02803626
     atom   19 type  2   force =    -0.01118745    0.02212915   -0.03070655
     atom   20 type  2   force =    -0.00090825   -0.01189062    0.00159204
     atom   21 type  2   force =     0.00658861    0.01483450   -0.00583778
     atom   22 type  3   force =     0.00616762    0.00486362    0.00295511
     atom   23 type  3   force =    -0.02264454   -0.01128479   -0.00169496
     atom   24 type  3   force =     0.01815806    0.01995206   -0.01689531
     atom   25 type  3   force =     0.01540253   -0.01390158    0.06384956
     atom   26 type  3   force =    -0.00332465    0.01180795    0.12404383
     atom   27 type  3   force =     0.03196961   -0.00460781   -0.00320351
     atom   28 type  3   force =    -0.00642498    0.00115145    0.04036795
     atom   29 type  3   force =     0.00860039    0.00352793    0.00493440
     atom   30 type  3   force =    -0.00243622    0.00925627    0.00428409
     atom   31 type  3   force =     0.00403584   -0.00071677   -0.01083903
     atom   32 type  3   force =    -0.00989568   -0.00176245   -0.00958388
     atom   33 type  4   force =    -0.00001155   -0.00810170   -0.03489217
     atom   34 type  4   force =     0.00893635    0.01250270   -0.00573163
     atom   35 type  4   force =    -0.00197423   -0.01730792   -0.02269808
     atom   36 type  4   force =     0.00071207    0.01011790   -0.03503357
     atom   37 type  4   force =     0.00313411    0.00126483    0.02890295
     atom   38 type  4   force =     0.00720769   -0.01542620    0.02965662
     atom   39 type  4   force =     0.00905426   -0.00667215    0.02264254
     atom   40 type  4   force =     0.00574936   -0.01205603    0.00970722
     atom   41 type  4   force =    -0.00425412   -0.00386984   -0.00504217
     atom   42 type  4   force =    -0.00250380   -0.00035452    0.00249513
     atom   43 type  4   force =     0.00201844   -0.00706480   -0.00203428
     atom   44 type  4   force =    -0.00389594   -0.00041211   -0.00293852
     atom   45 type  4   force =     0.00724005    0.00657943   -0.03961794
     atom   46 type  4   force =     0.00353807   -0.00089959   -0.04353886
     atom   47 type  4   force =    -0.00601476    0.00053718   -0.02773588
     atom   48 type  4   force =    -0.01211757   -0.00947711   -0.02266461
     atom   49 type  4   force =    -0.00883581   -0.00186079   -0.00318975
     atom   50 type  4   force =     0.00123558   -0.01105360   -0.00075950
     atom   51 type  4   force =    -0.00584253   -0.00338683   -0.00266325
     atom   52 type  4   force =    -0.00317759   -0.00588869    0.00469101
     atom   53 type  4   force =    -0.00238329    0.00107866   -0.02555693
     atom   54 type  4   force =    -0.00607955    0.00542424   -0.03684379
     atom   55 type  4   force =    -0.00163339    0.00400820   -0.03126309
     atom   56 type  4   force =    -0.00162293   -0.00916653   -0.02714119
     atom   57 type  4   force =    -0.01622653    0.00866977   -0.02743575
     atom   58 type  4   force =    -0.00919283   -0.00547849   -0.03899762
     atom   59 type  4   force =     0.01420386    0.01213677   -0.03099063
     atom   60 type  4   force =     0.00220278   -0.01001236   -0.02261968
     atom   61 type  4   force =     0.00851323   -0.00699118    0.01712434
     atom   62 type  4   force =     0.00437738   -0.00721861    0.02861283
     atom   63 type  4   force =     0.00980221   -0.00576616    0.00332492
     atom   64 type  4   force =     0.00286361   -0.00669966    0.02937154
     atom   65 type  4   force =     0.00243613   -0.00355370    0.02553412
     atom   66 type  5   force =    -0.00223552    0.00456632   -0.02715121
     atom   67 type  5   force =     0.00301402    0.00030509   -0.00236288
     atom   68 type  6   force =    -0.00207425    0.00202696    0.00256112

     Total force =     0.051185     Total SCF correction =     0.000076
     Energy error            =      1.5E-03 Ry
     Gradient error          =      2.7E-02 Ry/Bohr

     number of scf cycles    =  13
     number of bfgs steps    =  12

     energy             old  =   -5386.6077025362 Ry
     energy             new  =   -5386.6092246663 Ry

     CASE: energy            _new < energy            _old

     new trust radius        =       0.0514397689 bohr
     new conv_thr            =       0.0000000027 Ry


ATOMIC_POSITIONS (angstrom)
Ti               0.0581155817        0.0055251051       16.1702302083
Ti               0.0291331002        8.3621570543       11.5803477355    0   0   0
Ti               2.0975368417        4.1651924041       13.6995846818    0   0   0
Ti               8.3795041056        2.0957563981        9.4724378689    0   0   0
Ti               8.3750099733        6.2687152092        9.4933225157    0   0   0
Ti               4.2170671874        6.2898439467        9.4911460380    0   0   0
Ti               8.3706959315        2.0992468883       13.7196199333    0   0   0
Ti               8.3814371399        6.2587905921       13.6914936631    0   0   0
Ti               4.2074509867        6.2621252961       13.6953624844    0   0   0
Ti               2.1409815883        6.2194735738       15.8057051599
Ti               6.3129172630        6.2664471684       15.7357623928
V                8.4328257546        4.0854246542       15.7168178907
V                4.2796107385        4.0319426364       15.6555809158
V                4.1453105473        4.2119457891       11.5975026988    0   0   0
V                2.1879867013        0.0520231596        9.5054883674    0   0   0
V                2.1522427348        4.1319303501        9.4904675789    0   0   0
V                2.0919720210       -0.0034525136       13.6809547049    0   0   0
V                6.2957223951        4.1813414611       13.7896152224    0   0   0
V                4.2104512702        2.0785028673       13.6089365586    0   0   0
V                2.1048639148        6.2714192178       11.5723879270    0   0   0
V                6.3158808164        6.1438819511       11.5700667150    0   0   0
Cr               4.2477516683       -0.0277770580       15.5419505241
Cr               0.1179128009        4.1786640750       11.5195623927    0   0   0
Cr               4.1681598842        8.2577799257       11.6615352591    0   0   0
Cr               6.1999882077        0.1106418811        9.6948923906    0   0   0
Cr               6.2007452456        4.0563627707        9.3394942948    0   0   0
Cr               6.3039559766        8.3200573949       13.5345114413    0   0   0
Cr               4.2149984025        2.0754774019        9.7444374941    0   0   0
Cr               2.2755659224        2.0154906681       15.5676442991
Cr               6.2831055674        1.9620685178       15.5574480242
Cr               2.0054620409        2.1149661174       11.6192682974    0   0   0
Cr               6.3992485267        2.2488278238       11.6549867199    0   0   0
C                8.3671464633        0.0123762133        9.4921945368    0   0   0
C                8.3685510870        4.1683341954        9.4949958325    0   0   0
C                4.2233794382        0.0660683478        9.5137772640    0   0   0
C                4.2071394793        4.1170355077        9.4900603783    0   0   0
C                8.3753352139       -0.0047460034       13.6879749419    0   0   0
C                8.3555577743        4.1752016178       13.6998947017    0   0   0
C                4.2131653834        0.0054873094       13.6688163572    0   0   0
C                4.2220181648        4.1373219388       13.6924183861    0   0   0
C                2.1540977948        0.1387848921       15.8949167804
C                2.0869089566        4.1104043165       15.9544696805
C                6.1786514376        0.1186396384       15.8837639005
C                6.2351718098        4.1871748096       15.9186948845
C                2.1521326937        0.0175132539       11.5903255372    0   0   0
C                2.1078429860        4.1683083653       11.5671868517    0   0   0
C                6.2417937451        0.0188099573       11.6002801854    0   0   0
C                6.3283074126        4.1569384024       11.5682471185    0   0   0
C                8.1877163319        2.1761647947       15.8433318049
C                8.3464020892        6.3236580671       15.8589188806
C                4.1682063927        2.0809765734       15.7645252269
C                4.1938618423        6.4681838421       15.8807426184
C                0.0147673152        2.1438801594       11.5939557114    0   0   0
C                0.0200697416        6.2277703895       11.5821679336    0   0   0
C                4.2182428542        2.0594943016       11.6100232202    0   0   0
C                4.2117703951        6.2583221129       11.5919858628    0   0   0
C                2.1713130363        2.0860319016        9.4919958919    0   0   0
C                2.1164500536        6.2753611976        9.5156635851    0   0   0
C                6.2203151227        2.0809934926        9.4961719556    0   0   0
C                6.2861737462        6.2618311600        9.5257047400    0   0   0
C                2.1349207790        2.0551228178       13.6855329086    0   0   0
C                2.1043015435        6.2915359703       13.6724452320    0   0   0
C                6.2612712230        2.0678980813       13.6766563617    0   0   0
C                6.2981398968        6.2588382292       13.6653030130    0   0   0
C                2.1578679177        6.0790891032       18.0168820627
O                2.2047976106        5.9341492928       19.1529336206
O                8.3511889805        0.0797963987       18.0170679824
H                7.6577042563        0.4613081269       18.5750349864



     Writing config-only to output data dir ./tmp/hec3_CrTiV_f100_COOH_ads.save/ :
     XML data file
     NEW-OLD atomic charge density approx. for the potential

     Check: negative core charge=   -0.000005

     negative rho (up, down):  3.497E-02 0.000E+00

     total cpu time spent up to now is     5311.1 secs

     Self-consistent Calculation

     iteration #  1     ecut=    60.00 Ry     beta= 0.30
     Davidson diagonalization with overlap
     ethr =  1.00E-06,  avg # of iterations =  7.0

     negative rho (up, down):  3.498E-02 0.000E+00

     total cpu time spent up to now is     5322.2 secs

     total energy              =   -5386.60916975 Ry
     estimated scf accuracy    <       0.00731500 Ry

     iteration #  2     ecut=    60.00 Ry     beta= 0.30
     Davidson diagonalization with overlap
     c_bands:  3 eigenvalues not converged
     ethr =  1.30E-06,  avg # of iterations = 20.0

     negative rho (up, down):  3.498E-02 0.000E+00

     total cpu time spent up to now is     5336.8 secs

     total energy              =   -5386.60052936 Ry
     estimated scf accuracy    <       0.44114720 Ry

     iteration #  3     ecut=    60.00 Ry     beta= 0.30
     Davidson diagonalization with overlap
     ethr =  1.30E-06,  avg # of iterations = 15.0

     negative rho (up, down):  3.497E-02 0.000E+00

     total cpu time spent up to now is     5348.6 secs

     total energy              =   -5386.60843915 Ry
     estimated scf accuracy    <       0.08997888 Ry

     iteration #  4     ecut=    60.00 Ry     beta= 0.30
     Davidson diagonalization with overlap
     ethr =  1.30E-06,  avg # of iterations =  5.0

     negative rho (up, down):  3.499E-02 0.000E+00

     total cpu time spent up to now is     5358.5 secs

     total energy              =   -5386.60966921 Ry
     estimated scf accuracy    <       0.04228521 Ry

     iteration #  5     ecut=    60.00 Ry     beta= 0.30
     Davidson diagonalization with overlap
     ethr =  1.30E-06,  avg # of iterations =  5.0

     negative rho (up, down):  3.498E-02 0.000E+00

     total cpu time spent up to now is     5366.9 secs

     total energy              =   -5386.61037004 Ry
     estimated scf accuracy    <       0.01263842 Ry

     iteration #  6     ecut=    60.00 Ry     beta= 0.30
     Davidson diagonalization with overlap
     ethr =  1.30E-06,  avg # of iterations =  2.0

     negative rho (up, down):  3.498E-02 0.000E+00

     total cpu time spent up to now is     5374.1 secs

     total energy              =   -5386.61040532 Ry
     estimated scf accuracy    <       0.01107675 Ry

     iteration #  7     ecut=    60.00 Ry     beta= 0.30
     Davidson diagonalization with overlap
     ethr =  1.30E-06,  avg # of iterations =  1.0

     negative rho (up, down):  3.499E-02 0.000E+00

     total cpu time spent up to now is     5381.1 secs

     total energy              =   -5386.61062322 Ry
     estimated scf accuracy    <       0.00653777 Ry

     iteration #  8     ecut=    60.00 Ry     beta= 0.30
     Davidson diagonalization with overlap
     ethr =  1.17E-06,  avg # of iterations =  1.0

     negative rho (up, down):  3.499E-02 0.000E+00

     total cpu time spent up to now is     5387.9 secs

     total energy              =   -5386.61081144 Ry
     estimated scf accuracy    <       0.00209402 Ry

     iteration #  9     ecut=    60.00 Ry     beta= 0.30
     Davidson diagonalization with overlap
     ethr =  3.73E-07,  avg # of iterations =  1.0

     negative rho (up, down):  3.499E-02 0.000E+00

     total cpu time spent up to now is     5394.8 secs

     total energy              =   -5386.61087269 Ry
     estimated scf accuracy    <       0.00123275 Ry

     iteration # 10     ecut=    60.00 Ry     beta= 0.30
     Davidson diagonalization with overlap
     ethr =  2.20E-07,  avg # of iterations =  1.0

     negative rho (up, down):  3.499E-02 0.000E+00

     total cpu time spent up to now is     5401.6 secs

     total energy              =   -5386.61091588 Ry
     estimated scf accuracy    <       0.00025672 Ry

     iteration # 11     ecut=    60.00 Ry     beta= 0.30
     Davidson diagonalization with overlap
     ethr =  4.58E-08,  avg # of iterations =  5.0

     negative rho (up, down):  3.499E-02 0.000E+00

     total cpu time spent up to now is     5409.6 secs

     total energy              =   -5386.61091967 Ry
     estimated scf accuracy    <       0.00036231 Ry

     iteration # 12     ecut=    60.00 Ry     beta= 0.30
     Davidson diagonalization with overlap
     ethr =  4.58E-08,  avg # of iterations =  2.0

     negative rho (up, down):  3.499E-02 0.000E+00

     total cpu time spent up to now is     5416.8 secs

     total energy              =   -5386.61093094 Ry
     estimated scf accuracy    <       0.00020545 Ry

     iteration # 13     ecut=    60.00 Ry     beta= 0.30
     Davidson diagonalization with overlap
     ethr =  3.66E-08,  avg # of iterations =  2.0

     negative rho (up, down):  3.500E-02 0.000E+00

     total cpu time spent up to now is     5424.0 secs

     total energy              =   -5386.61092996 Ry
     estimated scf accuracy    <       0.00067481 Ry

     iteration # 14     ecut=    60.00 Ry     beta= 0.30
     Davidson diagonalization with overlap
     ethr =  3.66E-08,  avg # of iterations =  1.0

     negative rho (up, down):  3.500E-02 0.000E+00

     total cpu time spent up to now is     5430.6 secs

     total energy              =   -5386.61094183 Ry
     estimated scf accuracy    <       0.00005232 Ry

     iteration # 15     ecut=    60.00 Ry     beta= 0.30
     Davidson diagonalization with overlap
     ethr =  9.33E-09,  avg # of iterations =  2.0

     negative rho (up, down):  3.500E-02 0.000E+00

     total cpu time spent up to now is     5437.7 secs

     total energy              =   -5386.61094098 Ry
     estimated scf accuracy    <       0.00013363 Ry

     iteration # 16     ecut=    60.00 Ry     beta= 0.30
     Davidson diagonalization with overlap
     ethr =  9.33E-09,  avg # of iterations =  1.0

     negative rho (up, down):  3.499E-02 0.000E+00

     total cpu time spent up to now is     5444.9 secs

     total energy              =   -5386.61094325 Ry
     estimated scf accuracy    <       0.00006248 Ry

     iteration # 17     ecut=    60.00 Ry     beta= 0.30
     Davidson diagonalization with overlap
     ethr =  9.33E-09,  avg # of iterations =  1.0

     negative rho (up, down):  3.500E-02 0.000E+00

     total cpu time spent up to now is     5451.9 secs

     total energy              =   -5386.61094396 Ry
     estimated scf accuracy    <       0.00002752 Ry

     iteration # 18     ecut=    60.00 Ry     beta= 0.30
     Davidson diagonalization with overlap
     ethr =  4.91E-09,  avg # of iterations =  2.0

     negative rho (up, down):  3.500E-02 0.000E+00

     total cpu time spent up to now is     5459.1 secs

     total energy              =   -5386.61094419 Ry
     estimated scf accuracy    <       0.00003173 Ry

     iteration # 19     ecut=    60.00 Ry     beta= 0.30
     Davidson diagonalization with overlap
     ethr =  4.91E-09,  avg # of iterations =  1.0

     negative rho (up, down):  3.500E-02 0.000E+00

     total cpu time spent up to now is     5465.9 secs

     total energy              =   -5386.61094451 Ry
     estimated scf accuracy    <       0.00002512 Ry

     iteration # 20     ecut=    60.00 Ry     beta= 0.30
     Davidson diagonalization with overlap
     ethr =  4.48E-09,  avg # of iterations =  1.0

     negative rho (up, down):  3.500E-02 0.000E+00

     total cpu time spent up to now is     5472.5 secs

     total energy              =   -5386.61094508 Ry
     estimated scf accuracy    <       0.00000867 Ry

     iteration # 21     ecut=    60.00 Ry     beta= 0.30
     Davidson diagonalization with overlap
     ethr =  1.55E-09,  avg # of iterations =  2.0

     negative rho (up, down):  3.500E-02 0.000E+00

     total cpu time spent up to now is     5480.0 secs

     total energy              =   -5386.61094531 Ry
     estimated scf accuracy    <       0.00000605 Ry

     iteration # 22     ecut=    60.00 Ry     beta= 0.30
     Davidson diagonalization with overlap
     ethr =  1.08E-09,  avg # of iterations =  2.0

     negative rho (up, down):  3.500E-02 0.000E+00

     total cpu time spent up to now is     5487.3 secs

     total energy              =   -5386.61094546 Ry
     estimated scf accuracy    <       0.00000497 Ry

     iteration # 23     ecut=    60.00 Ry     beta= 0.30
     Davidson diagonalization with overlap
     ethr =  8.87E-10,  avg # of iterations =  2.0

     negative rho (up, down):  3.500E-02 0.000E+00

     total cpu time spent up to now is     5494.6 secs

     total energy              =   -5386.61094515 Ry
     estimated scf accuracy    <       0.00002401 Ry

     iteration # 24     ecut=    60.00 Ry     beta= 0.30
     Davidson diagonalization with overlap
     ethr =  8.87E-10,  avg # of iterations =  1.0

     negative rho (up, down):  3.500E-02 0.000E+00

     total cpu time spent up to now is     5501.5 secs

     total energy              =   -5386.61094549 Ry
     estimated scf accuracy    <       0.00000707 Ry

     iteration # 25     ecut=    60.00 Ry     beta= 0.30
     Davidson diagonalization with overlap
     ethr =  8.87E-10,  avg # of iterations =  1.0

     negative rho (up, down):  3.500E-02 0.000E+00

     total cpu time spent up to now is     5508.3 secs

     total energy              =   -5386.61094549 Ry
     estimated scf accuracy    <       0.00000765 Ry

     iteration # 26     ecut=    60.00 Ry     beta= 0.30
     Davidson diagonalization with overlap
     ethr =  8.87E-10,  avg # of iterations =  1.0

     negative rho (up, down):  3.500E-02 0.000E+00

     total cpu time spent up to now is     5515.3 secs

     total energy              =   -5386.61094562 Ry
     estimated scf accuracy    <       0.00000554 Ry

     iteration # 27     ecut=    60.00 Ry     beta= 0.30
     Davidson diagonalization with overlap
     ethr =  8.87E-10,  avg # of iterations =  1.0

     negative rho (up, down):  3.500E-02 0.000E+00

     total cpu time spent up to now is     5522.5 secs

     total energy              =   -5386.61094571 Ry
     estimated scf accuracy    <       0.00000167 Ry

     iteration # 28     ecut=    60.00 Ry     beta= 0.30
     Davidson diagonalization with overlap
     ethr =  2.97E-10,  avg # of iterations =  1.0

     negative rho (up, down):  3.500E-02 0.000E+00

     total cpu time spent up to now is     5529.6 secs

     total energy              =   -5386.61094572 Ry
     estimated scf accuracy    <       0.00000200 Ry

     iteration # 29     ecut=    60.00 Ry     beta= 0.30
     Davidson diagonalization with overlap
     ethr =  2.97E-10,  avg # of iterations =  1.0

     negative rho (up, down):  3.500E-02 0.000E+00

     total cpu time spent up to now is     5536.4 secs

     total energy              =   -5386.61094574 Ry
     estimated scf accuracy    <       0.00000118 Ry

     iteration # 30     ecut=    60.00 Ry     beta= 0.30
     Davidson diagonalization with overlap
     ethr =  2.10E-10,  avg # of iterations =  1.0

     negative rho (up, down):  3.500E-02 0.000E+00

     total cpu time spent up to now is     5543.1 secs

     total energy              =   -5386.61094577 Ry
     estimated scf accuracy    <       0.00000062 Ry

     iteration # 31     ecut=    60.00 Ry     beta= 0.30
     Davidson diagonalization with overlap
     ethr =  1.11E-10,  avg # of iterations =  2.0

     negative rho (up, down):  3.500E-02 0.000E+00

     total cpu time spent up to now is     5550.4 secs

     total energy              =   -5386.61094578 Ry
     estimated scf accuracy    <       0.00000055 Ry

     iteration # 32     ecut=    60.00 Ry     beta= 0.30
     Davidson diagonalization with overlap
     ethr =  9.78E-11,  avg # of iterations =  1.0

     negative rho (up, down):  3.500E-02 0.000E+00

     total cpu time spent up to now is     5557.1 secs

     total energy              =   -5386.61094580 Ry
     estimated scf accuracy    <       0.00000025 Ry

     iteration # 33     ecut=    60.00 Ry     beta= 0.30
     Davidson diagonalization with overlap
     ethr =  4.39E-11,  avg # of iterations =  2.0

     negative rho (up, down):  3.500E-02 0.000E+00

     total cpu time spent up to now is     5564.2 secs

     total energy              =   -5386.61094579 Ry
     estimated scf accuracy    <       0.00000079 Ry

     iteration # 34     ecut=    60.00 Ry     beta= 0.30
     Davidson diagonalization with overlap
     ethr =  4.39E-11,  avg # of iterations =  2.0

     negative rho (up, down):  3.500E-02 0.000E+00

     total cpu time spent up to now is     5571.8 secs

     total energy              =   -5386.61094580 Ry
     estimated scf accuracy    <       0.00000057 Ry

     iteration # 35     ecut=    60.00 Ry     beta= 0.30
     Davidson diagonalization with overlap
     ethr =  4.39E-11,  avg # of iterations =  2.0

     negative rho (up, down):  3.500E-02 0.000E+00

     total cpu time spent up to now is     5579.0 secs

     total energy              =   -5386.61094579 Ry
     estimated scf accuracy    <       0.00000053 Ry

     iteration # 36     ecut=    60.00 Ry     beta= 0.30
     Davidson diagonalization with overlap
     ethr =  4.39E-11,  avg # of iterations =  2.0

     negative rho (up, down):  3.500E-02 0.000E+00

     total cpu time spent up to now is     5585.9 secs

     total energy              =   -5386.61094579 Ry
     estimated scf accuracy    <       0.00000100 Ry

     iteration # 37     ecut=    60.00 Ry     beta= 0.30
     Davidson diagonalization with overlap
     ethr =  4.39E-11,  avg # of iterations =  1.0

     negative rho (up, down):  3.500E-02 0.000E+00

     total cpu time spent up to now is     5592.6 secs

     total energy              =   -5386.61094581 Ry
     estimated scf accuracy    <       0.00000023 Ry

     iteration # 38     ecut=    60.00 Ry     beta= 0.30
     Davidson diagonalization with overlap
     ethr =  4.02E-11,  avg # of iterations =  1.0

     negative rho (up, down):  3.500E-02 0.000E+00

     total cpu time spent up to now is     5599.3 secs

     total energy              =   -5386.61094581 Ry
     estimated scf accuracy    <       0.00000016 Ry

     iteration # 39     ecut=    60.00 Ry     beta= 0.30
     Davidson diagonalization with overlap
     ethr =  2.78E-11,  avg # of iterations =  1.0

     negative rho (up, down):  3.500E-02 0.000E+00

     total cpu time spent up to now is     5606.2 secs

     total energy              =   -5386.61094581 Ry
     estimated scf accuracy    <       0.00000009 Ry

     iteration # 40     ecut=    60.00 Ry     beta= 0.30
     Davidson diagonalization with overlap
     ethr =  1.60E-11,  avg # of iterations =  1.0

     negative rho (up, down):  3.500E-02 0.000E+00

     total cpu time spent up to now is     5613.0 secs

     total energy              =   -5386.61094582 Ry
     estimated scf accuracy    <       0.00000007 Ry

     iteration # 41     ecut=    60.00 Ry     beta= 0.30
     Davidson diagonalization with overlap
     ethr =  1.30E-11,  avg # of iterations =  1.0

     negative rho (up, down):  3.500E-02 0.000E+00

     total cpu time spent up to now is     5619.8 secs

     total energy              =   -5386.61094582 Ry
     estimated scf accuracy    <       0.00000006 Ry

     iteration # 42     ecut=    60.00 Ry     beta= 0.30
     Davidson diagonalization with overlap
     ethr =  1.07E-11,  avg # of iterations =  1.0

     negative rho (up, down):  3.500E-02 0.000E+00

     total cpu time spent up to now is     5626.7 secs

     total energy              =   -5386.61094582 Ry
     estimated scf accuracy    <       0.00000002 Ry

     iteration # 43     ecut=    60.00 Ry     beta= 0.30
     Davidson diagonalization with overlap
     ethr =  2.90E-12,  avg # of iterations =  2.0

     negative rho (up, down):  3.500E-02 0.000E+00

     total cpu time spent up to now is     5634.1 secs

     total energy              =   -5386.61094582 Ry
     estimated scf accuracy    <       0.00000003 Ry

     iteration # 44     ecut=    60.00 Ry     beta= 0.30
     Davidson diagonalization with overlap
     ethr =  2.90E-12,  avg # of iterations =  1.0

     negative rho (up, down):  3.500E-02 0.000E+00

     total cpu time spent up to now is     5640.8 secs

     total energy              =   -5386.61094582 Ry
     estimated scf accuracy    <       0.00000003 Ry

     iteration # 45     ecut=    60.00 Ry     beta= 0.30
     Davidson diagonalization with overlap
     ethr =  2.90E-12,  avg # of iterations =  2.0

     negative rho (up, down):  3.500E-02 0.000E+00

     total cpu time spent up to now is     5647.9 secs

     total energy              =   -5386.61094582 Ry
     estimated scf accuracy    <       0.00000003 Ry

     iteration # 46     ecut=    60.00 Ry     beta= 0.30
     Davidson diagonalization with overlap
     ethr =  2.90E-12,  avg # of iterations =  2.0

     negative rho (up, down):  3.500E-02 0.000E+00

     total cpu time spent up to now is     5654.8 secs

     total energy              =   -5386.61094582 Ry
     estimated scf accuracy    <       0.00000008 Ry

     iteration # 47     ecut=    60.00 Ry     beta= 0.30
     Davidson diagonalization with overlap
     ethr =  2.90E-12,  avg # of iterations =  2.0

     negative rho (up, down):  3.500E-02 0.000E+00

     total cpu time spent up to now is     5661.9 secs

     total energy              =   -5386.61094582 Ry
     estimated scf accuracy    <       0.00000002 Ry

     iteration # 48     ecut=    60.00 Ry     beta= 0.30
     Davidson diagonalization with overlap
     ethr =  2.90E-12,  avg # of iterations =  1.0

     negative rho (up, down):  3.500E-02 0.000E+00

     total cpu time spent up to now is     5668.8 secs

     total energy              =   -5386.61094582 Ry
     estimated scf accuracy    <       0.00000001 Ry

     iteration # 49     ecut=    60.00 Ry     beta= 0.30
     Davidson diagonalization with overlap
     ethr =  2.04E-12,  avg # of iterations =  1.0

     negative rho (up, down):  3.500E-02 0.000E+00

     total cpu time spent up to now is     5675.5 secs

     total energy              =   -5386.61094582 Ry
     estimated scf accuracy    <          6.6E-09 Ry

     iteration # 50     ecut=    60.00 Ry     beta= 0.30
     Davidson diagonalization with overlap
     ethr =  1.18E-12,  avg # of iterations =  2.0

     negative rho (up, down):  3.500E-02 0.000E+00

     total cpu time spent up to now is     5682.8 secs

     total energy              =   -5386.61094582 Ry
     estimated scf accuracy    <          9.0E-09 Ry

     iteration # 51     ecut=    60.00 Ry     beta= 0.30
     Davidson diagonalization with overlap
     ethr =  1.18E-12,  avg # of iterations =  2.0

     negative rho (up, down):  3.500E-02 0.000E+00

     total cpu time spent up to now is     5690.0 secs

     total energy              =   -5386.61094582 Ry
     estimated scf accuracy    <          8.3E-09 Ry

     iteration # 52     ecut=    60.00 Ry     beta= 0.30
     Davidson diagonalization with overlap
     ethr =  1.18E-12,  avg # of iterations =  1.0

     negative rho (up, down):  3.500E-02 0.000E+00

     total cpu time spent up to now is     5696.5 secs

     End of self-consistent calculation

          k = 0.0000 0.0000 0.0000 ( 46961 PWs)   bands (ev):

   -69.5676 -69.5426 -69.5130 -69.5024 -69.4780 -69.4666 -69.4462 -69.4384
   -69.4353 -69.4331 -69.2391 -62.0614 -62.0476 -62.0326 -61.9960 -61.9867
   -61.9095 -61.9089 -61.8210 -61.7693 -61.7644 -54.3246 -54.2882 -54.2755
   -54.1350 -54.0109 -53.9847 -53.9692 -53.9462 -53.8567 -53.8193 -53.7689
   -41.0218 -40.9833 -40.9755 -40.9602 -40.9522 -40.9436 -40.9096 -40.9067
   -40.8950 -40.8890 -40.8867 -40.8787 -40.8689 -40.8679 -40.8482 -40.8363
   -40.8296 -40.8097 -40.8025 -40.7960 -40.7937 -40.7785 -40.7758 -40.7722
   -40.7692 -40.7660 -40.7341 -40.7304 -40.7280 -40.6830 -40.6742 -40.6009
   -40.4629 -36.0391 -36.0052 -35.9966 -35.9794 -35.9520 -35.9413 -35.9275
   -35.8919 -35.8843 -35.8718 -35.8604 -35.8456 -35.8342 -35.8238 -35.8124
   -35.8035 -35.7930 -35.7881 -35.7824 -35.7612 -35.7493 -35.7318 -35.6974
   -35.6868 -35.6783 -35.6702 -35.6155 -35.6078 -35.5555 -35.5056 -30.7843
   -30.7185 -30.6855 -30.5711 -30.5612 -30.5457 -30.5353 -30.5331 -30.5258
   -30.5077 -30.4841 -30.4516 -30.4077 -30.4037 -30.4005 -30.3841 -30.3602
   -30.3533 -30.3362 -30.3305 -30.3111 -30.2760 -30.2675 -30.2196 -30.1995
   -30.1691 -30.1481 -30.1128 -30.1072 -30.0935 -30.0547 -30.0318 -29.9943
   -21.6294 -16.2672 -10.7284  -9.6658  -9.2526  -9.1791  -9.0710  -8.9300
    -8.5962  -8.3859  -8.3451  -8.2862  -8.2275  -8.1360  -8.0788  -7.9498
    -7.9330  -7.7822  -7.7043  -7.6418  -7.5500  -7.4932  -7.4486  -7.4353
    -7.4171  -7.3762  -7.2965  -7.2874  -7.1473  -7.0480  -6.8668  -6.8055
    -6.7300  -6.6045  -6.4803  -4.2687  -4.2373  -4.0567  -3.9461  -3.8749
    -3.8063  -3.7071  -3.2023  -2.9646  -2.8439  -2.7242  -2.6804  -2.6278
    -2.5875  -2.4704  -2.4578  -2.3973  -2.3393  -2.3385  -2.1756  -2.0786
    -2.0444  -1.9559  -1.8197  -1.8058  -1.7740  -1.7378  -1.6274  -1.5457
    -1.4816  -1.4491  -1.4321  -1.4054  -1.3716  -1.3519  -1.3335  -1.3150
    -1.3046  -1.2911  -1.2672  -1.2523  -1.2255  -1.2138  -1.1846  -1.0766
    -1.0580  -1.0447  -1.0251  -0.9784  -0.9468  -0.8878  -0.8622  -0.8030
    -0.7843  -0.7495  -0.7208  -0.7077  -0.6642  -0.6367  -0.6233  -0.6130
    -0.5907  -0.5855  -0.5690  -0.5493  -0.5422  -0.5155  -0.4480  -0.3668
    -0.2779  -0.2434  -0.1843  -0.1541  -0.1129  -0.0739  -0.0200   0.0485
     0.0623   0.0937   0.1073   0.1512   0.2238   0.2894   0.3083   0.4775
     0.4913   0.5921   0.6281   0.7179   0.7870   0.8830   0.9526   1.0075
     1.0852   1.0959   1.2191   1.2543   1.3357   1.4309   1.4535   1.4863
     1.5184   1.7328   1.7670   1.8075   1.8345   1.9053   1.9951   2.1941
     2.2358   2.3560   2.6505   2.6623   2.7629   2.8330   2.9457   2.9777
     2.9958   3.0604   3.1016   3.1186   3.1709   3.1891   3.2189   3.2695
     3.2706   3.3109   3.3165   3.3537   3.3846   3.3931   3.4362   3.4547
     3.4925   3.5055   3.5477   3.5819   3.6734   3.6851   3.7164   3.7469
     3.7758   3.8343   3.8520   3.8895   3.9456   3.9658   3.9948   4.0122
     4.0669   4.0827   4.1036   4.1464   4.1743   4.2148   4.2478   4.2623
     4.2748   4.3447   4.3722   4.4204   4.4332   4.4588   4.5369   4.5776
     4.5881   4.6374   4.6628   4.6957   4.7160   4.8081   4.8509   4.8780
     4.9021

     the Fermi energy is     3.0057 ev

!    total energy              =   -5386.61094582 Ry
     estimated scf accuracy    <          2.4E-09 Ry
     smearing contrib. (-TS)   =      -0.03620384 Ry
     internal energy E=F+TS    =   -5386.57474198 Ry

     The total energy is F=E-TS. E is the sum of the following terms:
     one-electron contribution =  -55927.76763543 Ry
     hartree contribution      =   27997.06383625 Ry
     xc contribution           =    -807.44056378 Ry
     ewald contribution        =   23574.40268440 Ry
     one-center paw contrib.   =    -222.83306342 Ry

     convergence has been achieved in  52 iterations

     negative rho (up, down):  3.500E-02 0.000E+00

     Forces acting on atoms (cartesian axes, Ry/au):

     atom    1 type  1   force =    -0.00148149   -0.00141580    0.00445922
     atom    2 type  1   force =    -0.00361161   -0.00632566    0.00377205
     atom    3 type  1   force =    -0.01258183    0.03179228   -0.00245048
     atom    4 type  1   force =    -0.00033073   -0.01506899    0.02921497
     atom    5 type  1   force =    -0.00399263    0.01140357    0.00058901
     atom    6 type  1   force =     0.00803008   -0.00077676    0.02781753
     atom    7 type  1   force =    -0.00478723   -0.01648371   -0.02929766
     atom    8 type  1   force =     0.00923188    0.02246518   -0.01081669
     atom    9 type  1   force =    -0.01687574   -0.00082654   -0.03544264
     atom   10 type  1   force =     0.00343074   -0.00030923    0.00419216
     atom   11 type  1   force =     0.00205189   -0.00038205    0.00803581
     atom   12 type  2   force =    -0.00119501   -0.00315965   -0.01246329
     atom   13 type  2   force =     0.00281497    0.00404308   -0.00317806
     atom   14 type  2   force =     0.02240742   -0.00671563    0.01963838
     atom   15 type  2   force =    -0.01220306    0.00016389    0.11294621
     atom   16 type  2   force =     0.00512285    0.00073675    0.09572626
     atom   17 type  2   force =    -0.04871091   -0.01954110   -0.02351758
     atom   18 type  2   force =     0.00516301    0.02488904   -0.02865668
     atom   19 type  2   force =    -0.01322807    0.02199975   -0.03023454
     atom   20 type  2   force =    -0.00067854   -0.01180034    0.00172300
     atom   21 type  2   force =     0.00622364    0.01496024   -0.00599523
     atom   22 type  3   force =     0.00698433    0.00445655    0.00085699
     atom   23 type  3   force =    -0.02276252   -0.01105565    0.00003406
     atom   24 type  3   force =     0.01855584    0.02056134   -0.01691478
     atom   25 type  3   force =     0.01539765   -0.01402214    0.06384155
     atom   26 type  3   force =    -0.00313121    0.01171374    0.12369510
     atom   27 type  3   force =     0.03068483   -0.00318086   -0.00142606
     atom   28 type  3   force =    -0.00646296    0.00092199    0.04061413
     atom   29 type  3   force =     0.00640830    0.00014579   -0.00377234
     atom   30 type  3   force =    -0.00552806    0.00629656   -0.00405362
     atom   31 type  3   force =     0.00433941   -0.00115691   -0.01130587
     atom   32 type  3   force =    -0.01034522   -0.00142843   -0.01037984
     atom   33 type  4   force =    -0.00005382   -0.00801954   -0.03517604
     atom   34 type  4   force =     0.00883036    0.01249240   -0.00621302
     atom   35 type  4   force =    -0.00197067   -0.01710943   -0.02265699
     atom   36 type  4   force =     0.00062627    0.01027306   -0.03502446
     atom   37 type  4   force =     0.00278444    0.00088900    0.03019943
     atom   38 type  4   force =     0.00824790   -0.01365045    0.02896435
     atom   39 type  4   force =     0.00940747   -0.00610534    0.02339213
     atom   40 type  4   force =     0.00617893   -0.01199975    0.01028447
     atom   41 type  4   force =    -0.00317793   -0.00275730   -0.00496184
     atom   42 type  4   force =    -0.00120454    0.00263929    0.00295586
     atom   43 type  4   force =     0.00040659   -0.00492250   -0.00171690
     atom   44 type  4   force =    -0.00374796    0.00095933   -0.00162158
     atom   45 type  4   force =     0.00739203    0.00682236   -0.04014161
     atom   46 type  4   force =     0.00389638   -0.00083289   -0.04380449
     atom   47 type  4   force =    -0.00574500    0.00055109   -0.02838835
     atom   48 type  4   force =    -0.01194259   -0.00973115   -0.02303112
     atom   49 type  4   force =    -0.00695439    0.00245388    0.00030278
     atom   50 type  4   force =     0.00083738   -0.00274266    0.00109134
     atom   51 type  4   force =    -0.00211393   -0.00071208    0.00143398
     atom   52 type  4   force =    -0.00067772   -0.00677529    0.00094480
     atom   53 type  4   force =    -0.00249941    0.00083805   -0.02448660
     atom   54 type  4   force =    -0.00604795    0.00581385   -0.03620154
     atom   55 type  4   force =    -0.00164317    0.00398560   -0.03192098
     atom   56 type  4   force =    -0.00154162   -0.00917242   -0.02635031
     atom   57 type  4   force =    -0.01621049    0.00869173   -0.02720414
     atom   58 type  4   force =    -0.00906954   -0.00555751   -0.03903396
     atom   59 type  4   force =     0.01430644    0.01229483   -0.03071823
     atom   60 type  4   force =     0.00223843   -0.00996070   -0.02249157
     atom   61 type  4   force =     0.00898691   -0.00662990    0.02047127
     atom   62 type  4   force =     0.00593204   -0.00641474    0.02846610
     atom   63 type  4   force =     0.01174743   -0.00531439    0.00628750
     atom   64 type  4   force =     0.00233093   -0.00669278    0.02805363
     atom   65 type  4   force =     0.00161346   -0.00042501    0.01024065
     atom   66 type  5   force =    -0.00152102    0.00231606   -0.01436508
     atom   67 type  5   force =     0.00068851    0.00128038   -0.00454829
     atom   68 type  6   force =     0.00072987    0.00032464   -0.00028227

     Total force =     0.033207     Total SCF correction =     0.000059
     Energy error            =      1.7E-03 Ry
     Gradient error          =      1.4E-02 Ry/Bohr

     number of scf cycles    =  14
     number of bfgs steps    =  13

     energy             old  =   -5386.6092246663 Ry
     energy             new  =   -5386.6109458183 Ry

     CASE: energy            _new < energy            _old

     new trust radius        =       0.0233621492 bohr
     new conv_thr            =       0.0000000014 Ry


ATOMIC_POSITIONS (angstrom)
Ti               0.0580910414        0.0041838382       16.1709893332
Ti               0.0291331002        8.3621570543       11.5803477355    0   0   0
Ti               2.0975368417        4.1651924041       13.6995846818    0   0   0
Ti               8.3795041056        2.0957563981        9.4724378689    0   0   0
Ti               8.3750099733        6.2687152092        9.4933225157    0   0   0
Ti               4.2170671874        6.2898439467        9.4911460380    0   0   0
Ti               8.3706959315        2.0992468883       13.7196199333    0   0   0
Ti               8.3814371399        6.2587905921       13.6914936631    0   0   0
Ti               4.2074509867        6.2621252961       13.6953624844    0   0   0
Ti               2.1454312834        6.2219401219       15.8066772350
Ti               6.3127553757        6.2677744016       15.7410284359
V                8.4335985485        4.0865168744       15.7045277884
V                4.2835721989        4.0331706575       15.6529803460
V                4.1453105473        4.2119457891       11.5975026988    0   0   0
V                2.1879867013        0.0520231596        9.5054883674    0   0   0
V                2.1522427348        4.1319303501        9.4904675789    0   0   0
V                2.0919720210       -0.0034525136       13.6809547049    0   0   0
V                6.2957223951        4.1813414611       13.7896152224    0   0   0
V                4.2104512702        2.0785028673       13.6089365586    0   0   0
V                2.1048639148        6.2714192178       11.5723879270    0   0   0
V                6.3158808164        6.1438819511       11.5700667150    0   0   0
Cr               4.2542347354       -0.0243222136       15.5445468682
Cr               0.1179128009        4.1786640750       11.5195623927    0   0   0
Cr               4.1681598842        8.2577799257       11.6615352591    0   0   0
Cr               6.1999882077        0.1106418811        9.6948923906    0   0   0
Cr               6.2007452456        4.0563627707        9.3394942948    0   0   0
Cr               6.3039559766        8.3200573949       13.5345114413    0   0   0
Cr               4.2149984025        2.0754774019        9.7444374941    0   0   0
Cr               2.2827107121        2.0157271546       15.5702910275
Cr               6.2811373254        1.9677057807       15.5596423207
Cr               2.0054620409        2.1149661174       11.6192682974    0   0   0
Cr               6.3992485267        2.2488278238       11.6549867199    0   0   0
C                8.3671464633        0.0123762133        9.4921945368    0   0   0
C                8.3685510870        4.1683341954        9.4949958325    0   0   0
C                4.2233794382        0.0660683478        9.5137772640    0   0   0
C                4.2071394793        4.1170355077        9.4900603783    0   0   0
C                8.3753352139       -0.0047460034       13.6879749419    0   0   0
C                8.3555577743        4.1752016178       13.6998947017    0   0   0
C                4.2131653834        0.0054873094       13.6688163572    0   0   0
C                4.2220181648        4.1373219388       13.6924183861    0   0   0
C                2.1499068846        0.1370901539       15.8901647069
C                2.0846896018        4.1117381354       15.9568016059
C                6.1795501354        0.1147338622       15.8812641413
C                6.2307009932        4.1880926456       15.9163754552
C                2.1521326937        0.0175132539       11.5903255372    0   0   0
C                2.1078429860        4.1683083653       11.5671868517    0   0   0
C                6.2417937451        0.0188099573       11.6002801854    0   0   0
C                6.3283074126        4.1569384024       11.5682471185    0   0   0
C                8.1781978650        2.1757541070       15.8420838714
C                8.3469197801        6.3178906298       15.8600910695
C                4.1638054336        2.0800684234       15.7627885520
C                4.1918397148        6.4648037585       15.8840863153
C                0.0147673152        2.1438801594       11.5939557114    0   0   0
C                0.0200697416        6.2277703895       11.5821679336    0   0   0
C                4.2182428542        2.0594943016       11.6100232202    0   0   0
C                4.2117703951        6.2583221129       11.5919858628    0   0   0
C                2.1713130363        2.0860319016        9.4919958919    0   0   0
C                2.1164500536        6.2753611976        9.5156635851    0   0   0
C                6.2203151227        2.0809934926        9.4961719556    0   0   0
C                6.2861737462        6.2618311600        9.5257047400    0   0   0
C                2.1349207790        2.0551228178       13.6855329086    0   0   0
C                2.1043015435        6.2915359703       13.6724452320    0   0   0
C                6.2612712230        2.0678980813       13.6766563617    0   0   0
C                6.2981398968        6.2588382292       13.6653030130    0   0   0
C                2.1588787342        6.0800038732       18.0175132192
O                2.2038440333        5.9347633757       19.1498531446
O                8.3521660919        0.0813412320       18.0165008198
H                7.6579066358        0.4620799417       18.5757288175



     Writing config-only to output data dir ./tmp/hec3_CrTiV_f100_COOH_ads.save/ :
     XML data file
     NEW-OLD atomic charge density approx. for the potential

     Check: negative core charge=   -0.000005

     negative rho (up, down):  3.497E-02 0.000E+00

     total cpu time spent up to now is     5708.7 secs

     Self-consistent Calculation

     iteration #  1     ecut=    60.00 Ry     beta= 0.30
     Davidson diagonalization with overlap
     ethr =  1.00E-06,  avg # of iterations =  5.0

     negative rho (up, down):  3.497E-02 0.000E+00

     total cpu time spent up to now is     5718.0 secs

     total energy              =   -5386.61024634 Ry
     estimated scf accuracy    <       0.00382106 Ry

     iteration #  2     ecut=    60.00 Ry     beta= 0.30
     Davidson diagonalization with overlap
     c_bands:  3 eigenvalues not converged
     ethr =  6.81E-07,  avg # of iterations = 20.0

     negative rho (up, down):  3.499E-02 0.000E+00

     total cpu time spent up to now is     5731.5 secs

     total energy              =   -5386.60266721 Ry
     estimated scf accuracy    <       0.43319347 Ry

     iteration #  3     ecut=    60.00 Ry     beta= 0.30
     Davidson diagonalization with overlap
     ethr =  6.81E-07,  avg # of iterations = 15.0

     negative rho (up, down):  3.497E-02 0.000E+00

     total cpu time spent up to now is     5744.6 secs

     total energy              =   -5386.61030316 Ry
     estimated scf accuracy    <       0.05891016 Ry

     iteration #  4     ecut=    60.00 Ry     beta= 0.30
     Davidson diagonalization with overlap
     ethr =  6.81E-07,  avg # of iterations =  6.0

     negative rho (up, down):  3.498E-02 0.000E+00

     total cpu time spent up to now is     5753.7 secs

     total energy              =   -5386.61136431 Ry
     estimated scf accuracy    <       0.01334559 Ry

     iteration #  5     ecut=    60.00 Ry     beta= 0.30
     Davidson diagonalization with overlap
     ethr =  6.81E-07,  avg # of iterations =  2.0

     negative rho (up, down):  3.497E-02 0.000E+00

     total cpu time spent up to now is     5760.9 secs

     total energy              =   -5386.61167177 Ry
     estimated scf accuracy    <       0.00201073 Ry

     iteration #  6     ecut=    60.00 Ry     beta= 0.30
     Davidson diagonalization with overlap
     ethr =  3.58E-07,  avg # of iterations =  2.0

     negative rho (up, down):  3.497E-02 0.000E+00

     total cpu time spent up to now is     5768.4 secs

     total energy              =   -5386.61173681 Ry
     estimated scf accuracy    <       0.00141258 Ry

     iteration #  7     ecut=    60.00 Ry     beta= 0.30
     Davidson diagonalization with overlap
     ethr =  2.52E-07,  avg # of iterations =  2.0

     negative rho (up, down):  3.497E-02 0.000E+00

     total cpu time spent up to now is     5775.4 secs

     total energy              =   -5386.61177312 Ry
     estimated scf accuracy    <       0.00059047 Ry

     iteration #  8     ecut=    60.00 Ry     beta= 0.30
     Davidson diagonalization with overlap
     ethr =  1.05E-07,  avg # of iterations =  3.0

     negative rho (up, down):  3.497E-02 0.000E+00

     total cpu time spent up to now is     5782.9 secs

     total energy              =   -5386.61178668 Ry
     estimated scf accuracy    <       0.00056974 Ry

     iteration #  9     ecut=    60.00 Ry     beta= 0.30
     Davidson diagonalization with overlap
     ethr =  1.02E-07,  avg # of iterations =  1.0

     negative rho (up, down):  3.497E-02 0.000E+00

     total cpu time spent up to now is     5789.6 secs

     total energy              =   -5386.61179727 Ry
     estimated scf accuracy    <       0.00038052 Ry

     iteration # 10     ecut=    60.00 Ry     beta= 0.30
     Davidson diagonalization with overlap
     ethr =  6.78E-08,  avg # of iterations =  2.0

     negative rho (up, down):  3.497E-02 0.000E+00

     total cpu time spent up to now is     5796.6 secs

     total energy              =   -5386.61180660 Ry
     estimated scf accuracy    <       0.00013522 Ry

     iteration # 11     ecut=    60.00 Ry     beta= 0.30
     Davidson diagonalization with overlap
     ethr =  2.41E-08,  avg # of iterations =  2.0

     negative rho (up, down):  3.497E-02 0.000E+00

     total cpu time spent up to now is     5803.9 secs

     total energy              =   -5386.61180646 Ry
     estimated scf accuracy    <       0.00019181 Ry

     iteration # 12     ecut=    60.00 Ry     beta= 0.30
     Davidson diagonalization with overlap
     ethr =  2.41E-08,  avg # of iterations =  2.0

     negative rho (up, down):  3.497E-02 0.000E+00

     total cpu time spent up to now is     5811.3 secs

     total energy              =   -5386.61179678 Ry
     estimated scf accuracy    <       0.00068266 Ry

     iteration # 13     ecut=    60.00 Ry     beta= 0.30
     Davidson diagonalization with overlap
     ethr =  2.41E-08,  avg # of iterations =  2.0

     negative rho (up, down):  3.497E-02 0.000E+00

     total cpu time spent up to now is     5818.6 secs

     total energy              =   -5386.61180480 Ry
     estimated scf accuracy    <       0.00054956 Ry

     iteration # 14     ecut=    60.00 Ry     beta= 0.30
     Davidson diagonalization with overlap
     ethr =  2.41E-08,  avg # of iterations =  1.0

     negative rho (up, down):  3.497E-02 0.000E+00

     total cpu time spent up to now is     5825.3 secs

     total energy              =   -5386.61181477 Ry
     estimated scf accuracy    <       0.00007574 Ry

     iteration # 15     ecut=    60.00 Ry     beta= 0.30
     Davidson diagonalization with overlap
     ethr =  1.35E-08,  avg # of iterations =  1.0

     negative rho (up, down):  3.497E-02 0.000E+00

     total cpu time spent up to now is     5831.8 secs

     total energy              =   -5386.61181693 Ry
     estimated scf accuracy    <       0.00000545 Ry

     iteration # 16     ecut=    60.00 Ry     beta= 0.30
     Davidson diagonalization with overlap
     ethr =  9.71E-10,  avg # of iterations =  6.0

     negative rho (up, down):  3.497E-02 0.000E+00

     total cpu time spent up to now is     5840.6 secs

     total energy              =   -5386.61181663 Ry
     estimated scf accuracy    <       0.00002058 Ry

     iteration # 17     ecut=    60.00 Ry     beta= 0.30
     Davidson diagonalization with overlap
     ethr =  9.71E-10,  avg # of iterations =  5.0

     negative rho (up, down):  3.497E-02 0.000E+00

     total cpu time spent up to now is     5848.6 secs

     total energy              =   -5386.61181712 Ry
     estimated scf accuracy    <       0.00001050 Ry

     iteration # 18     ecut=    60.00 Ry     beta= 0.30
     Davidson diagonalization with overlap
     ethr =  9.71E-10,  avg # of iterations =  2.0

     negative rho (up, down):  3.497E-02 0.000E+00

     total cpu time spent up to now is     5855.5 secs

     total energy              =   -5386.61181730 Ry
     estimated scf accuracy    <       0.00000532 Ry

     iteration # 19     ecut=    60.00 Ry     beta= 0.30
     Davidson diagonalization with overlap
     ethr =  9.49E-10,  avg # of iterations =  2.0

     negative rho (up, down):  3.497E-02 0.000E+00

     total cpu time spent up to now is     5863.0 secs

     total energy              =   -5386.61181731 Ry
     estimated scf accuracy    <       0.00000853 Ry

     iteration # 20     ecut=    60.00 Ry     beta= 0.30
     Davidson diagonalization with overlap
     ethr =  9.49E-10,  avg # of iterations =  1.0

     negative rho (up, down):  3.497E-02 0.000E+00

     total cpu time spent up to now is     5869.6 secs

     total energy              =   -5386.61181749 Ry
     estimated scf accuracy    <       0.00000231 Ry

     iteration # 21     ecut=    60.00 Ry     beta= 0.30
     Davidson diagonalization with overlap
     ethr =  4.13E-10,  avg # of iterations =  2.0

     negative rho (up, down):  3.497E-02 0.000E+00

     total cpu time spent up to now is     5876.7 secs

     total energy              =   -5386.61181750 Ry
     estimated scf accuracy    <       0.00000404 Ry

     iteration # 22     ecut=    60.00 Ry     beta= 0.30
     Davidson diagonalization with overlap
     ethr =  4.13E-10,  avg # of iterations =  1.0

     negative rho (up, down):  3.497E-02 0.000E+00

     total cpu time spent up to now is     5883.5 secs

     total energy              =   -5386.61181763 Ry
     estimated scf accuracy    <       0.00000095 Ry

     iteration # 23     ecut=    60.00 Ry     beta= 0.30
     Davidson diagonalization with overlap
     ethr =  1.70E-10,  avg # of iterations =  2.0

     negative rho (up, down):  3.497E-02 0.000E+00

     total cpu time spent up to now is     5890.6 secs

     total energy              =   -5386.61181762 Ry
     estimated scf accuracy    <       0.00000190 Ry

     iteration # 24     ecut=    60.00 Ry     beta= 0.30
     Davidson diagonalization with overlap
     ethr =  1.70E-10,  avg # of iterations =  2.0

     negative rho (up, down):  3.497E-02 0.000E+00

     total cpu time spent up to now is     5897.9 secs

     total energy              =   -5386.61181757 Ry
     estimated scf accuracy    <       0.00000524 Ry

     iteration # 25     ecut=    60.00 Ry     beta= 0.30
     Davidson diagonalization with overlap
     ethr =  1.70E-10,  avg # of iterations =  2.0

     negative rho (up, down):  3.497E-02 0.000E+00

     total cpu time spent up to now is     5905.2 secs

     total energy              =   -5386.61181763 Ry
     estimated scf accuracy    <       0.00000160 Ry

     iteration # 26     ecut=    60.00 Ry     beta= 0.30
     Davidson diagonalization with overlap
     ethr =  1.70E-10,  avg # of iterations =  1.0

     negative rho (up, down):  3.497E-02 0.000E+00

     total cpu time spent up to now is     5911.9 secs

     total energy              =   -5386.61181767 Ry
     estimated scf accuracy    <       0.00000059 Ry

     iteration # 27     ecut=    60.00 Ry     beta= 0.30
     Davidson diagonalization with overlap
     ethr =  1.05E-10,  avg # of iterations =  1.0

     negative rho (up, down):  3.497E-02 0.000E+00

     total cpu time spent up to now is     5918.6 secs

     total energy              =   -5386.61181769 Ry
     estimated scf accuracy    <       0.00000020 Ry

     iteration # 28     ecut=    60.00 Ry     beta= 0.30
     Davidson diagonalization with overlap
     ethr =  3.57E-11,  avg # of iterations =  2.0

     negative rho (up, down):  3.497E-02 0.000E+00

     total cpu time spent up to now is     5925.7 secs

     total energy              =   -5386.61181769 Ry
     estimated scf accuracy    <       0.00000023 Ry

     iteration # 29     ecut=    60.00 Ry     beta= 0.30
     Davidson diagonalization with overlap
     ethr =  3.57E-11,  avg # of iterations =  2.0

     negative rho (up, down):  3.497E-02 0.000E+00

     total cpu time spent up to now is     5933.5 secs

     total energy              =   -5386.61181769 Ry
     estimated scf accuracy    <       0.00000038 Ry

     iteration # 30     ecut=    60.00 Ry     beta= 0.30
     Davidson diagonalization with overlap
     ethr =  3.57E-11,  avg # of iterations =  1.0

     negative rho (up, down):  3.497E-02 0.000E+00

     total cpu time spent up to now is     5940.2 secs

     total energy              =   -5386.61181769 Ry
     estimated scf accuracy    <       0.00000018 Ry

     iteration # 31     ecut=    60.00 Ry     beta= 0.30
     Davidson diagonalization with overlap
     ethr =  3.18E-11,  avg # of iterations =  1.0

     negative rho (up, down):  3.497E-02 0.000E+00

     total cpu time spent up to now is     5947.0 secs

     total energy              =   -5386.61181770 Ry
     estimated scf accuracy    <       0.00000007 Ry

     iteration # 32     ecut=    60.00 Ry     beta= 0.30
     Davidson diagonalization with overlap
     ethr =  1.21E-11,  avg # of iterations =  2.0

     negative rho (up, down):  3.497E-02 0.000E+00

     total cpu time spent up to now is     5954.4 secs

     total energy              =   -5386.61181770 Ry
     estimated scf accuracy    <       0.00000002 Ry

     iteration # 33     ecut=    60.00 Ry     beta= 0.30
     Davidson diagonalization with overlap
     ethr =  3.83E-12,  avg # of iterations =  2.0

     negative rho (up, down):  3.497E-02 0.000E+00

     total cpu time spent up to now is     5961.9 secs

     total energy              =   -5386.61181770 Ry
     estimated scf accuracy    <       0.00000003 Ry

     iteration # 34     ecut=    60.00 Ry     beta= 0.30
     Davidson diagonalization with overlap
     ethr =  3.83E-12,  avg # of iterations =  4.0

     negative rho (up, down):  3.497E-02 0.000E+00

     total cpu time spent up to now is     5969.9 secs

     total energy              =   -5386.61181770 Ry
     estimated scf accuracy    <       0.00000027 Ry

     iteration # 35     ecut=    60.00 Ry     beta= 0.30
     Davidson diagonalization with overlap
     ethr =  3.83E-12,  avg # of iterations =  5.0

     negative rho (up, down):  3.497E-02 0.000E+00

     total cpu time spent up to now is     5977.7 secs

     total energy              =   -5386.61181770 Ry
     estimated scf accuracy    <       0.00000006 Ry

     iteration # 36     ecut=    60.00 Ry     beta= 0.30
     Davidson diagonalization with overlap
     ethr =  3.83E-12,  avg # of iterations =  2.0

     negative rho (up, down):  3.497E-02 0.000E+00

     total cpu time spent up to now is     5985.1 secs

     total energy              =   -5386.61181770 Ry
     estimated scf accuracy    <       0.00000002 Ry

     iteration # 37     ecut=    60.00 Ry     beta= 0.30
     Davidson diagonalization with overlap
     ethr =  3.26E-12,  avg # of iterations =  1.0

     negative rho (up, down):  3.497E-02 0.000E+00

     total cpu time spent up to now is     5992.3 secs

     total energy              =   -5386.61181770 Ry
     estimated scf accuracy    <          6.9E-09 Ry

     iteration # 38     ecut=    60.00 Ry     beta= 0.30
     Davidson diagonalization with overlap
     ethr =  1.23E-12,  avg # of iterations =  2.0

     negative rho (up, down):  3.497E-02 0.000E+00

     total cpu time spent up to now is     5999.2 secs

     total energy              =   -5386.61181770 Ry
     estimated scf accuracy    <          5.9E-09 Ry

     iteration # 39     ecut=    60.00 Ry     beta= 0.30
     Davidson diagonalization with overlap
     ethr =  1.06E-12,  avg # of iterations =  2.0

     negative rho (up, down):  3.497E-02 0.000E+00

     total cpu time spent up to now is     6006.3 secs

     total energy              =   -5386.61181770 Ry
     estimated scf accuracy    <       0.00000002 Ry

     iteration # 40     ecut=    60.00 Ry     beta= 0.30
     Davidson diagonalization with overlap
     ethr =  1.06E-12,  avg # of iterations =  4.0

     negative rho (up, down):  3.497E-02 0.000E+00

     total cpu time spent up to now is     6013.9 secs

     total energy              =   -5386.61181770 Ry
     estimated scf accuracy    <       0.00000002 Ry

     iteration # 41     ecut=    60.00 Ry     beta= 0.30
     Davidson diagonalization with overlap
     ethr =  1.06E-12,  avg # of iterations =  2.0

     negative rho (up, down):  3.497E-02 0.000E+00

     total cpu time spent up to now is     6021.2 secs

     total energy              =   -5386.61181770 Ry
     estimated scf accuracy    <          9.0E-09 Ry

     iteration # 42     ecut=    60.00 Ry     beta= 0.30
     Davidson diagonalization with overlap
     ethr =  1.06E-12,  avg # of iterations =  2.0

     negative rho (up, down):  3.497E-02 0.000E+00

     total cpu time spent up to now is     6031.1 secs

     total energy              =   -5386.61181770 Ry
     estimated scf accuracy    <          3.1E-09 Ry

     iteration # 43     ecut=    60.00 Ry     beta= 0.30
     Davidson diagonalization with overlap
     ethr =  5.56E-13,  avg # of iterations =  1.0

     negative rho (up, down):  3.497E-02 0.000E+00

     total cpu time spent up to now is     6038.2 secs

     End of self-consistent calculation

          k = 0.0000 0.0000 0.0000 ( 46961 PWs)   bands (ev):

   -69.5652 -69.5385 -69.5093 -69.4985 -69.4757 -69.4622 -69.4423 -69.4322
   -69.4292 -69.4272 -69.2344 -62.0568 -62.0428 -62.0283 -61.9931 -61.9838
   -61.9059 -61.9051 -61.8168 -61.7648 -61.7527 -54.3235 -54.2848 -54.2713
   -54.1319 -54.0067 -53.9811 -53.9653 -53.9442 -53.8624 -53.8116 -53.7656
   -41.0182 -40.9801 -40.9718 -40.9570 -40.9479 -40.9401 -40.9061 -40.9028
   -40.8893 -40.8852 -40.8810 -40.8735 -40.8652 -40.8616 -40.8440 -40.8325
   -40.8264 -40.8061 -40.7956 -40.7918 -40.7898 -40.7746 -40.7689 -40.7684
   -40.7661 -40.7637 -40.7304 -40.7263 -40.7194 -40.6790 -40.6692 -40.5965
   -40.4585 -36.0350 -36.0011 -35.9918 -35.9750 -35.9476 -35.9374 -35.9235
   -35.8877 -35.8829 -35.8685 -35.8561 -35.8416 -35.8304 -35.8200 -35.8091
   -35.7999 -35.7895 -35.7847 -35.7802 -35.7578 -35.7453 -35.7276 -35.6923
   -35.6828 -35.6734 -35.6581 -35.6110 -35.6008 -35.5467 -35.5003 -30.7843
   -30.7152 -30.6813 -30.5693 -30.5581 -30.5427 -30.5312 -30.5292 -30.5216
   -30.5058 -30.4808 -30.4484 -30.4044 -30.4004 -30.3972 -30.3802 -30.3573
   -30.3493 -30.3325 -30.3274 -30.3080 -30.2728 -30.2672 -30.2169 -30.1959
   -30.1638 -30.1525 -30.1076 -30.1020 -30.0962 -30.0492 -30.0297 -29.9927
   -21.6914 -16.2683 -10.7246  -9.6624  -9.2494  -9.1751  -9.0670  -8.9263
    -8.5927  -8.3810  -8.3421  -8.2817  -8.2258  -8.1320  -8.0765  -7.9459
    -7.9295  -7.7794  -7.7003  -7.6384  -7.5468  -7.4916  -7.4488  -7.4333
    -7.4122  -7.3728  -7.2899  -7.2848  -7.1431  -7.0427  -6.8625  -6.8020
    -6.7289  -6.6036  -6.4771  -4.2996  -4.2753  -4.0692  -3.9428  -3.8712
    -3.8037  -3.7038  -3.2028  -2.9601  -2.8411  -2.7240  -2.6778  -2.6239
    -2.5837  -2.4660  -2.4549  -2.3935  -2.3348  -2.3343  -2.1731  -2.0746
    -2.0408  -1.9528  -1.8151  -1.8024  -1.7701  -1.7338  -1.6254  -1.5425
    -1.4778  -1.4460  -1.4287  -1.4022  -1.3711  -1.3478  -1.3301  -1.3113
    -1.3003  -1.2878  -1.2651  -1.2493  -1.2223  -1.2109  -1.1805  -1.0737
    -1.0547  -1.0433  -1.0216  -0.9770  -0.9433  -0.8853  -0.8588  -0.7997
    -0.7814  -0.7479  -0.7164  -0.7033  -0.6612  -0.6354  -0.6179  -0.6123
    -0.5888  -0.5825  -0.5670  -0.5462  -0.5392  -0.5119  -0.4441  -0.3589
    -0.2742  -0.2378  -0.1788  -0.1502  -0.1137  -0.0718  -0.0188   0.0522
     0.0610   0.0977   0.1129   0.1564   0.2247   0.2921   0.3150   0.4790
     0.4916   0.5990   0.6285   0.7236   0.7849   0.8881   0.9547   1.0130
     1.0874   1.1006   1.2197   1.2583   1.3402   1.4326   1.4597   1.4884
     1.5232   1.7401   1.7698   1.8073   1.8415   1.9100   1.9938   2.1971
     2.2451   2.3509   2.6541   2.6673   2.7664   2.8372   2.9508   2.9817
     2.9989   3.0616   3.1080   3.1229   3.1772   3.1935   3.2222   3.2717
     3.2734   3.3144   3.3224   3.3577   3.3876   3.3990   3.4448   3.4620
     3.4971   3.5098   3.5560   3.5850   3.6742   3.6896   3.7228   3.7505
     3.7782   3.8415   3.8553   3.8948   3.9481   3.9709   3.9980   4.0161
     4.0714   4.0867   4.1081   4.1494   4.1782   4.2184   4.2485   4.2666
     4.2822   4.3513   4.3738   4.4256   4.4385   4.4627   4.5439   4.5814
     4.5926   4.6405   4.6667   4.6991   4.7217   4.8138   4.8547   4.8816
     4.9054

     the Fermi energy is     3.0098 ev

!    total energy              =   -5386.61181770 Ry
     estimated scf accuracy    <          1.3E-09 Ry
     smearing contrib. (-TS)   =      -0.03628686 Ry
     internal energy E=F+TS    =   -5386.57553085 Ry

     The total energy is F=E-TS. E is the sum of the following terms:
     one-electron contribution =  -55930.74548692 Ry
     hartree contribution      =   27998.62164165 Ry
     xc contribution           =    -807.45291685 Ry
     ewald contribution        =   23575.83424333 Ry
     one-center paw contrib.   =    -222.83301205 Ry

     convergence has been achieved in  43 iterations

     negative rho (up, down):  3.497E-02 0.000E+00

     Forces acting on atoms (cartesian axes, Ry/au):

     atom    1 type  1   force =    -0.00145297   -0.00114006    0.00233020
     atom    2 type  1   force =    -0.00365950   -0.00631979    0.00370133
     atom    3 type  1   force =    -0.01173944    0.03142069   -0.00249129
     atom    4 type  1   force =    -0.00043178   -0.01510203    0.02925403
     atom    5 type  1   force =    -0.00408048    0.01136377    0.00067521
     atom    6 type  1   force =     0.00799152   -0.00087089    0.02775458
     atom    7 type  1   force =    -0.00526049   -0.01786356   -0.03024346
     atom    8 type  1   force =     0.00877583    0.02277520   -0.01157155
     atom    9 type  1   force =    -0.01677228   -0.00063778   -0.03474212
     atom   10 type  1   force =     0.00148109   -0.00161051    0.00340935
     atom   11 type  1   force =     0.00287594   -0.00128507    0.00373320
     atom   12 type  2   force =    -0.00007876   -0.00129400   -0.00377351
     atom   13 type  2   force =    -0.00028891    0.00588690   -0.00112368
     atom   14 type  2   force =     0.02246144   -0.00666781    0.01965187
     atom   15 type  2   force =    -0.01231644    0.00020031    0.11294359
     atom   16 type  2   force =     0.00504296    0.00074953    0.09574148
     atom   17 type  2   force =    -0.04864427   -0.01936655   -0.02232717
     atom   18 type  2   force =     0.00405314    0.02535108   -0.02959440
     atom   19 type  2   force =    -0.01372503    0.02133552   -0.03083362
     atom   20 type  2   force =    -0.00073440   -0.01169384    0.00169716
     atom   21 type  2   force =     0.00605850    0.01522173   -0.00599672
     atom   22 type  3   force =     0.00621557    0.00150458   -0.00109649
     atom   23 type  3   force =    -0.02278546   -0.01099378    0.00092963
     atom   24 type  3   force =     0.01864657    0.02059749   -0.01702829
     atom   25 type  3   force =     0.01540533   -0.01400905    0.06379704
     atom   26 type  3   force =    -0.00314734    0.01178482    0.12346350
     atom   27 type  3   force =     0.03026702   -0.00356540   -0.00086901
     atom   28 type  3   force =    -0.00650228    0.00088131    0.04067007
     atom   29 type  3   force =     0.00219606   -0.00051195   -0.00604109
     atom   30 type  3   force =    -0.00312769    0.00292325   -0.00641637
     atom   31 type  3   force =     0.00453778   -0.00134537   -0.01161930
     atom   32 type  3   force =    -0.01045587   -0.00134579   -0.01054237
     atom   33 type  4   force =    -0.00006403   -0.00800173   -0.03526533
     atom   34 type  4   force =     0.00878385    0.01248422   -0.00644679
     atom   35 type  4   force =    -0.00195448   -0.01709282   -0.02262985
     atom   36 type  4   force =     0.00064361    0.01033191   -0.03499170
     atom   37 type  4   force =     0.00254660    0.00084926    0.03102963
     atom   38 type  4   force =     0.00852405   -0.01339543    0.02663569
     atom   39 type  4   force =     0.00983223   -0.00572131    0.02426214
     atom   40 type  4   force =     0.00646728   -0.01148497    0.00920497
     atom   41 type  4   force =    -0.00191570   -0.00124544   -0.00397604
     atom   42 type  4   force =    -0.00139959    0.00092237    0.00113566
     atom   43 type  4   force =    -0.00066124   -0.00261144   -0.00160669
     atom   44 type  4   force =    -0.00205189   -0.00059868   -0.00117173
     atom   45 type  4   force =     0.00748026    0.00690939   -0.04048475
     atom   46 type  4   force =     0.00405302   -0.00079156   -0.04382098
     atom   47 type  4   force =    -0.00565649    0.00048555   -0.02855544
     atom   48 type  4   force =    -0.01195269   -0.00993121   -0.02310825
     atom   49 type  4   force =    -0.00720579    0.00337353    0.00116161
     atom   50 type  4   force =    -0.00003619   -0.00100160    0.00189031
     atom   51 type  4   force =     0.00156973   -0.00061728    0.00283524
     atom   52 type  4   force =     0.00125189   -0.00507563   -0.00027208
     atom   53 type  4   force =    -0.00245079    0.00085187   -0.02421476
     atom   54 type  4   force =    -0.00597884    0.00588897   -0.03606741
     atom   55 type  4   force =    -0.00161734    0.00402086   -0.03189476
     atom   56 type  4   force =    -0.00147788   -0.00916319   -0.02623839
     atom   57 type  4   force =    -0.01617013    0.00867529   -0.02714338
     atom   58 type  4   force =    -0.00899927   -0.00558864   -0.03901403
     atom   59 type  4   force =     0.01435042    0.01228234   -0.03061095
     atom   60 type  4   force =     0.00225923   -0.01000077   -0.02238588
     atom   61 type  4   force =     0.00963705   -0.00651441    0.02139258
     atom   62 type  4   force =     0.00643759   -0.00617271    0.02858466
     atom   63 type  4   force =     0.01138624   -0.00531283    0.00695397
     atom   64 type  4   force =     0.00220612   -0.00660441    0.02926598
     atom   65 type  4   force =     0.00087513    0.00161305   -0.00509770
     atom   66 type  5   force =    -0.00086620    0.00032303    0.00119173
     atom   67 type  5   force =    -0.00075978    0.00193148   -0.00261062
     atom   68 type  6   force =     0.00210865   -0.00038999   -0.00137847

     Total force =     0.021021     Total SCF correction =     0.000023
     Energy error            =      8.7E-04 Ry
     Gradient error          =      7.2E-03 Ry/Bohr

     number of scf cycles    =  15
     number of bfgs steps    =  14

     energy             old  =   -5386.6109458183 Ry
     energy             new  =   -5386.6118177017 Ry

     CASE: energy            _new < energy            _old

     new trust radius        =       0.0264140797 bohr
     new conv_thr            =       0.0000000010 Ry


ATOMIC_POSITIONS (angstrom)
Ti               0.0573444300        0.0020695621       16.1730355355
Ti               0.0291331002        8.3621570543       11.5803477355    0   0   0
Ti               2.0975368417        4.1651924041       13.6995846818    0   0   0
Ti               8.3795041056        2.0957563981        9.4724378689    0   0   0
Ti               8.3750099733        6.2687152092        9.4933225157    0   0   0
Ti               4.2170671874        6.2898439467        9.4911460380    0   0   0
Ti               8.3706959315        2.0992468883       13.7196199333    0   0   0
Ti               8.3814371399        6.2587905921       13.6914936631    0   0   0
Ti               4.2074509867        6.2621252961       13.6953624844    0   0   0
Ti               2.1498761336        6.2231639097       15.8092287673
Ti               6.3143377087        6.2683713471       15.7457441957
V                8.4352067737        4.0885131369       15.6944979362
V                4.2858134402        4.0381147633       15.6508562458
V                4.1453105473        4.2119457891       11.5975026988    0   0   0
V                2.1879867013        0.0520231596        9.5054883674    0   0   0
V                2.1522427348        4.1319303501        9.4904675789    0   0   0
V                2.0919720210       -0.0034525136       13.6809547049    0   0   0
V                6.2957223951        4.1813414611       13.7896152224    0   0   0
V                4.2104512702        2.0785028673       13.6089365586    0   0   0
V                2.1048639148        6.2714192178       11.5723879270    0   0   0
V                6.3158808164        6.1438819511       11.5700667150    0   0   0
Cr               4.2638763914       -0.0205055182       15.5452631094
Cr               0.1179128009        4.1786640750       11.5195623927    0   0   0
Cr               4.1681598842        8.2577799257       11.6615352591    0   0   0
Cr               6.1999882077        0.1106418811        9.6948923906    0   0   0
Cr               6.2007452456        4.0563627707        9.3394942948    0   0   0
Cr               6.3039559766        8.3200573949       13.5345114413    0   0   0
Cr               4.2149984025        2.0754774019        9.7444374941    0   0   0
Cr               2.2878988958        2.0154502038       15.5678176361
Cr               6.2802981664        1.9737889528       15.5567027958
Cr               2.0054620409        2.1149661174       11.6192682974    0   0   0
Cr               6.3992485267        2.2488278238       11.6549867199    0   0   0
C                8.3671464633        0.0123762133        9.4921945368    0   0   0
C                8.3685510870        4.1683341954        9.4949958325    0   0   0
C                4.2233794382        0.0660683478        9.5137772640    0   0   0
C                4.2071394793        4.1170355077        9.4900603783    0   0   0
C                8.3753352139       -0.0047460034       13.6879749419    0   0   0
C                8.3555577743        4.1752016178       13.6998947017    0   0   0
C                4.2131653834        0.0054873094       13.6688163572    0   0   0
C                4.2220181648        4.1373219388       13.6924183861    0   0   0
C                2.1449735803        0.1350886926       15.8840479980
C                2.0815940140        4.1127657182       15.9584615410
C                6.1794541534        0.1103281613       15.8775795103
C                6.2257773247        4.1881182660       15.9135159943
C                2.1521326937        0.0175132539       11.5903255372    0   0   0
C                2.1078429860        4.1683083653       11.5671868517    0   0   0
C                6.2417937451        0.0188099573       11.6002801854    0   0   0
C                6.3283074126        4.1569384024       11.5682471185    0   0   0
C                8.1644596943        2.1781628347       15.8429990804
C                8.3466737922        6.3111325349       15.8645236115
C                4.1616488664        2.0788830854       15.7632337051
C                4.1911940836        6.4597225129       15.8877148200
C                0.0147673152        2.1438801594       11.5939557114    0   0   0
C                0.0200697416        6.2277703895       11.5821679336    0   0   0
C                4.2182428542        2.0594943016       11.6100232202    0   0   0
C                4.2117703951        6.2583221129       11.5919858628    0   0   0
C                2.1713130363        2.0860319016        9.4919958919    0   0   0
C                2.1164500536        6.2753611976        9.5156635851    0   0   0
C                6.2203151227        2.0809934926        9.4961719556    0   0   0
C                6.2861737462        6.2618311600        9.5257047400    0   0   0
C                2.1349207790        2.0551228178       13.6855329086    0   0   0
C                2.1043015435        6.2915359703       13.6724452320    0   0   0
C                6.2612712230        2.0678980813       13.6766563617    0   0   0
C                6.2981398968        6.2588382292       13.6653030130    0   0   0
C                2.1604389589        6.0813417675       18.0166373270
O                2.2023178490        5.9359450729       19.1471388538
O                8.3528017043        0.0838701526       18.0141500803
H                7.6592410721        0.4626430722       18.5755463260



     Writing config-only to output data dir ./tmp/hec3_CrTiV_f100_COOH_ads.save/ :
     XML data file
     NEW-OLD atomic charge density approx. for the potential

     Check: negative core charge=   -0.000005

     negative rho (up, down):  3.531E-02 0.000E+00

     total cpu time spent up to now is     6050.7 secs

     Self-consistent Calculation

     iteration #  1     ecut=    60.00 Ry     beta= 0.30
     Davidson diagonalization with overlap
     ethr =  1.00E-06,  avg # of iterations =  5.0

     negative rho (up, down):  3.530E-02 0.000E+00

     total cpu time spent up to now is     6060.2 secs

     total energy              =   -5386.61163565 Ry
     estimated scf accuracy    <       0.00235974 Ry

     iteration #  2     ecut=    60.00 Ry     beta= 0.30
     Davidson diagonalization with overlap
     ethr =  4.21E-07,  avg # of iterations = 19.0

     negative rho (up, down):  3.530E-02 0.000E+00

     total cpu time spent up to now is     6074.0 secs

     total energy              =   -5386.60917732 Ry
     estimated scf accuracy    <       0.10069830 Ry

     iteration #  3     ecut=    60.00 Ry     beta= 0.30
     Davidson diagonalization with overlap
     c_bands:  1 eigenvalues not converged
     ethr =  4.21E-07,  avg # of iterations = 20.0

     negative rho (up, down):  3.530E-02 0.000E+00

     total cpu time spent up to now is     6088.1 secs

     total energy              =   -5386.61135755 Ry
     estimated scf accuracy    <       0.05012258 Ry

     iteration #  4     ecut=    60.00 Ry     beta= 0.30
     Davidson diagonalization with overlap
     ethr =  4.21E-07,  avg # of iterations =  5.0

     negative rho (up, down):  3.531E-02 0.000E+00

     total cpu time spent up to now is     6096.3 secs

     total energy              =   -5386.61213788 Ry
     estimated scf accuracy    <       0.00931984 Ry

     iteration #  5     ecut=    60.00 Ry     beta= 0.30
     Davidson diagonalization with overlap
     ethr =  4.21E-07,  avg # of iterations =  2.0

     negative rho (up, down):  3.530E-02 0.000E+00

     total cpu time spent up to now is     6103.7 secs

     total energy              =   -5386.61230221 Ry
     estimated scf accuracy    <       0.00350422 Ry

     iteration #  6     ecut=    60.00 Ry     beta= 0.30
     Davidson diagonalization with overlap
     ethr =  4.21E-07,  avg # of iterations =  2.0

     negative rho (up, down):  3.531E-02 0.000E+00

     total cpu time spent up to now is     6112.2 secs

     total energy              =   -5386.61234761 Ry
     estimated scf accuracy    <       0.00186205 Ry

     iteration #  7     ecut=    60.00 Ry     beta= 0.30
     Davidson diagonalization with overlap
     ethr =  3.32E-07,  avg # of iterations =  2.0

     negative rho (up, down):  3.530E-02 0.000E+00

     total cpu time spent up to now is     6119.7 secs

     total energy              =   -5386.61238765 Ry
     estimated scf accuracy    <       0.00100162 Ry

     iteration #  8     ecut=    60.00 Ry     beta= 0.30
     Davidson diagonalization with overlap
     ethr =  1.79E-07,  avg # of iterations =  1.0

     negative rho (up, down):  3.530E-02 0.000E+00

     total cpu time spent up to now is     6126.5 secs

     total energy              =   -5386.61242024 Ry
     estimated scf accuracy    <       0.00035473 Ry

     iteration #  9     ecut=    60.00 Ry     beta= 0.30
     Davidson diagonalization with overlap
     ethr =  6.32E-08,  avg # of iterations =  2.0

     negative rho (up, down):  3.530E-02 0.000E+00

     total cpu time spent up to now is     6134.0 secs

     total energy              =   -5386.61242888 Ry
     estimated scf accuracy    <       0.00030173 Ry

     iteration # 10     ecut=    60.00 Ry     beta= 0.30
     Davidson diagonalization with overlap
     ethr =  5.38E-08,  avg # of iterations =  1.0

     negative rho (up, down):  3.530E-02 0.000E+00

     total cpu time spent up to now is     6140.8 secs

     total energy              =   -5386.61243640 Ry
     estimated scf accuracy    <       0.00011690 Ry

     iteration # 11     ecut=    60.00 Ry     beta= 0.30
     Davidson diagonalization with overlap
     ethr =  2.08E-08,  avg # of iterations =  2.0

     negative rho (up, down):  3.530E-02 0.000E+00

     total cpu time spent up to now is     6148.1 secs

     total energy              =   -5386.61243451 Ry
     estimated scf accuracy    <       0.00021282 Ry

     iteration # 12     ecut=    60.00 Ry     beta= 0.30
     Davidson diagonalization with overlap
     ethr =  2.08E-08,  avg # of iterations =  2.0

     negative rho (up, down):  3.530E-02 0.000E+00

     total cpu time spent up to now is     6155.7 secs

     total energy              =   -5386.61243780 Ry
     estimated scf accuracy    <       0.00014436 Ry

     iteration # 13     ecut=    60.00 Ry     beta= 0.30
     Davidson diagonalization with overlap
     ethr =  2.08E-08,  avg # of iterations =  2.0

     negative rho (up, down):  3.530E-02 0.000E+00

     total cpu time spent up to now is     6164.0 secs

     total energy              =   -5386.61243748 Ry
     estimated scf accuracy    <       0.00039641 Ry

     iteration # 14     ecut=    60.00 Ry     beta= 0.30
     Davidson diagonalization with overlap
     ethr =  2.08E-08,  avg # of iterations =  1.0

     negative rho (up, down):  3.530E-02 0.000E+00

     total cpu time spent up to now is     6174.3 secs

     total energy              =   -5386.61244494 Ry
     estimated scf accuracy    <       0.00001991 Ry

     iteration # 15     ecut=    60.00 Ry     beta= 0.30
     Davidson diagonalization with overlap
     ethr =  3.55E-09,  avg # of iterations =  2.0

     negative rho (up, down):  3.530E-02 0.000E+00

     total cpu time spent up to now is     6181.8 secs

     total energy              =   -5386.61244523 Ry
     estimated scf accuracy    <       0.00000686 Ry

     iteration # 16     ecut=    60.00 Ry     beta= 0.30
     Davidson diagonalization with overlap
     ethr =  1.22E-09,  avg # of iterations =  6.0

     negative rho (up, down):  3.530E-02 0.000E+00

     total cpu time spent up to now is     6190.2 secs

     total energy              =   -5386.61244494 Ry
     estimated scf accuracy    <       0.00004503 Ry

     iteration # 17     ecut=    60.00 Ry     beta= 0.30
     Davidson diagonalization with overlap
     ethr =  1.22E-09,  avg # of iterations =  5.0

     negative rho (up, down):  3.530E-02 0.000E+00

     total cpu time spent up to now is     6198.3 secs

     total energy              =   -5386.61244570 Ry
     estimated scf accuracy    <       0.00000510 Ry

     iteration # 18     ecut=    60.00 Ry     beta= 0.30
     Davidson diagonalization with overlap
     ethr =  9.10E-10,  avg # of iterations =  2.0

     negative rho (up, down):  3.530E-02 0.000E+00

     total cpu time spent up to now is     6206.0 secs

     total energy              =   -5386.61244578 Ry
     estimated scf accuracy    <       0.00000359 Ry

     iteration # 19     ecut=    60.00 Ry     beta= 0.30
     Davidson diagonalization with overlap
     ethr =  6.39E-10,  avg # of iterations =  2.0

     negative rho (up, down):  3.530E-02 0.000E+00

     total cpu time spent up to now is     6213.5 secs

     total energy              =   -5386.61244583 Ry
     estimated scf accuracy    <       0.00000367 Ry

     iteration # 20     ecut=    60.00 Ry     beta= 0.30
     Davidson diagonalization with overlap
     ethr =  6.39E-10,  avg # of iterations =  1.0

     negative rho (up, down):  3.530E-02 0.000E+00

     total cpu time spent up to now is     6220.0 secs

     total energy              =   -5386.61244588 Ry
     estimated scf accuracy    <       0.00000341 Ry

     iteration # 21     ecut=    60.00 Ry     beta= 0.30
     Davidson diagonalization with overlap
     ethr =  6.08E-10,  avg # of iterations =  1.0

     negative rho (up, down):  3.530E-02 0.000E+00

     total cpu time spent up to now is     6226.5 secs

     total energy              =   -5386.61244597 Ry
     estimated scf accuracy    <       0.00000160 Ry

     iteration # 22     ecut=    60.00 Ry     beta= 0.30
     Davidson diagonalization with overlap
     ethr =  2.86E-10,  avg # of iterations =  1.0

     negative rho (up, down):  3.530E-02 0.000E+00

     total cpu time spent up to now is     6233.5 secs

     total energy              =   -5386.61244602 Ry
     estimated scf accuracy    <       0.00000095 Ry

     iteration # 23     ecut=    60.00 Ry     beta= 0.30
     Davidson diagonalization with overlap
     ethr =  1.69E-10,  avg # of iterations =  1.0

     negative rho (up, down):  3.530E-02 0.000E+00

     total cpu time spent up to now is     6243.3 secs

     total energy              =   -5386.61244604 Ry
     estimated scf accuracy    <       0.00000033 Ry

     iteration # 24     ecut=    60.00 Ry     beta= 0.30
     Davidson diagonalization with overlap
     ethr =  5.85E-11,  avg # of iterations =  5.0

     negative rho (up, down):  3.530E-02 0.000E+00

     total cpu time spent up to now is     6251.7 secs

     total energy              =   -5386.61244597 Ry
     estimated scf accuracy    <       0.00000448 Ry

     iteration # 25     ecut=    60.00 Ry     beta= 0.30
     Davidson diagonalization with overlap
     ethr =  5.85E-11,  avg # of iterations =  5.0

     negative rho (up, down):  3.530E-02 0.000E+00

     total cpu time spent up to now is     6259.7 secs

     total energy              =   -5386.61244603 Ry
     estimated scf accuracy    <       0.00000091 Ry

     iteration # 26     ecut=    60.00 Ry     beta= 0.30
     Davidson diagonalization with overlap
     ethr =  5.85E-11,  avg # of iterations =  2.0

     negative rho (up, down):  3.530E-02 0.000E+00

     total cpu time spent up to now is     6267.3 secs

     total energy              =   -5386.61244605 Ry
     estimated scf accuracy    <       0.00000041 Ry

     iteration # 27     ecut=    60.00 Ry     beta= 0.30
     Davidson diagonalization with overlap
     ethr =  5.85E-11,  avg # of iterations =  1.0

     negative rho (up, down):  3.530E-02 0.000E+00

     total cpu time spent up to now is     6274.1 secs

     total energy              =   -5386.61244606 Ry
     estimated scf accuracy    <       0.00000048 Ry

     iteration # 28     ecut=    60.00 Ry     beta= 0.30
     Davidson diagonalization with overlap
     ethr =  5.85E-11,  avg # of iterations =  1.0

     negative rho (up, down):  3.530E-02 0.000E+00

     total cpu time spent up to now is     6281.1 secs

     total energy              =   -5386.61244607 Ry
     estimated scf accuracy    <       0.00000006 Ry

     iteration # 29     ecut=    60.00 Ry     beta= 0.30
     Davidson diagonalization with overlap
     ethr =  1.06E-11,  avg # of iterations =  5.0

     negative rho (up, down):  3.530E-02 0.000E+00

     total cpu time spent up to now is     6289.1 secs

     total energy              =   -5386.61244606 Ry
     estimated scf accuracy    <       0.00000016 Ry

     iteration # 30     ecut=    60.00 Ry     beta= 0.30
     Davidson diagonalization with overlap
     ethr =  1.06E-11,  avg # of iterations =  2.0

     negative rho (up, down):  3.530E-02 0.000E+00

     total cpu time spent up to now is     6296.4 secs

     total energy              =   -5386.61244607 Ry
     estimated scf accuracy    <       0.00000008 Ry

     iteration # 31     ecut=    60.00 Ry     beta= 0.30
     Davidson diagonalization with overlap
     ethr =  1.06E-11,  avg # of iterations =  1.0

     negative rho (up, down):  3.530E-02 0.000E+00

     total cpu time spent up to now is     6303.1 secs

     total energy              =   -5386.61244607 Ry
     estimated scf accuracy    <       0.00000003 Ry

     iteration # 32     ecut=    60.00 Ry     beta= 0.30
     Davidson diagonalization with overlap
     ethr =  4.47E-12,  avg # of iterations =  2.0

     negative rho (up, down):  3.530E-02 0.000E+00

     total cpu time spent up to now is     6310.1 secs

     total energy              =   -5386.61244607 Ry
     estimated scf accuracy    <          9.9E-09 Ry

     iteration # 33     ecut=    60.00 Ry     beta= 0.30
     Davidson diagonalization with overlap
     ethr =  1.76E-12,  avg # of iterations =  2.0

     negative rho (up, down):  3.530E-02 0.000E+00

     total cpu time spent up to now is     6317.8 secs

     total energy              =   -5386.61244607 Ry
     estimated scf accuracy    <          4.8E-09 Ry

     iteration # 34     ecut=    60.00 Ry     beta= 0.30
     Davidson diagonalization with overlap
     ethr =  8.63E-13,  avg # of iterations =  5.0

     negative rho (up, down):  3.530E-02 0.000E+00

     total cpu time spent up to now is     6326.2 secs

     total energy              =   -5386.61244607 Ry
     estimated scf accuracy    <       0.00000005 Ry

     iteration # 35     ecut=    60.00 Ry     beta= 0.30
     Davidson diagonalization with overlap
     ethr =  8.63E-13,  avg # of iterations =  5.0

     negative rho (up, down):  3.530E-02 0.000E+00

     total cpu time spent up to now is     6334.7 secs

     total energy              =   -5386.61244607 Ry
     estimated scf accuracy    <       0.00000003 Ry

     iteration # 36     ecut=    60.00 Ry     beta= 0.30
     Davidson diagonalization with overlap
     ethr =  8.63E-13,  avg # of iterations =  5.0

     negative rho (up, down):  3.530E-02 0.000E+00

     total cpu time spent up to now is     6343.1 secs

     total energy              =   -5386.61244607 Ry
     estimated scf accuracy    <       0.00000001 Ry

     iteration # 37     ecut=    60.00 Ry     beta= 0.30
     Davidson diagonalization with overlap
     ethr =  8.63E-13,  avg # of iterations =  5.0

     negative rho (up, down):  3.530E-02 0.000E+00

     total cpu time spent up to now is     6352.6 secs

     total energy              =   -5386.61244607 Ry
     estimated scf accuracy    <       0.00000002 Ry

     iteration # 38     ecut=    60.00 Ry     beta= 0.30
     Davidson diagonalization with overlap
     ethr =  8.63E-13,  avg # of iterations =  2.0

     negative rho (up, down):  3.530E-02 0.000E+00

     total cpu time spent up to now is     6359.9 secs

     total energy              =   -5386.61244607 Ry
     estimated scf accuracy    <          3.2E-09 Ry

     iteration # 39     ecut=    60.00 Ry     beta= 0.30
     Davidson diagonalization with overlap
     ethr =  5.73E-13,  avg # of iterations =  2.0

     negative rho (up, down):  3.530E-02 0.000E+00

     total cpu time spent up to now is     6367.0 secs

     total energy              =   -5386.61244607 Ry
     estimated scf accuracy    <          4.4E-09 Ry

     iteration # 40     ecut=    60.00 Ry     beta= 0.30
     Davidson diagonalization with overlap
     ethr =  5.73E-13,  avg # of iterations =  2.0

     negative rho (up, down):  3.530E-02 0.000E+00

     total cpu time spent up to now is     6374.6 secs

     total energy              =   -5386.61244607 Ry
     estimated scf accuracy    <          9.2E-09 Ry

     iteration # 41     ecut=    60.00 Ry     beta= 0.30
     Davidson diagonalization with overlap
     ethr =  5.73E-13,  avg # of iterations =  2.0

     negative rho (up, down):  3.530E-02 0.000E+00

     total cpu time spent up to now is     6381.8 secs

     total energy              =   -5386.61244607 Ry
     estimated scf accuracy    <          5.1E-09 Ry

     iteration # 42     ecut=    60.00 Ry     beta= 0.30
     Davidson diagonalization with overlap
     ethr =  5.73E-13,  avg # of iterations =  1.0

     negative rho (up, down):  3.530E-02 0.000E+00

     total cpu time spent up to now is     6388.3 secs

     total energy              =   -5386.61244607 Ry
     estimated scf accuracy    <          1.1E-09 Ry

     iteration # 43     ecut=    60.00 Ry     beta= 0.30
     Davidson diagonalization with overlap
     ethr =  1.98E-13,  avg # of iterations =  1.0

     negative rho (up, down):  3.530E-02 0.000E+00

     total cpu time spent up to now is     6394.8 secs

     End of self-consistent calculation

          k = 0.0000 0.0000 0.0000 ( 46961 PWs)   bands (ev):

   -69.5632 -69.5338 -69.5052 -69.4940 -69.4735 -69.4582 -69.4382 -69.4288
   -69.4242 -69.4198 -69.2297 -62.0523 -62.0376 -62.0240 -61.9905 -61.9807
   -61.9024 -61.9017 -61.8134 -61.7637 -61.7407 -54.3252 -54.2816 -54.2670
   -54.1292 -54.0058 -53.9775 -53.9616 -53.9423 -53.8661 -53.8050 -53.7649
   -41.0143 -40.9784 -40.9692 -40.9542 -40.9435 -40.9368 -40.9025 -40.8991
   -40.8835 -40.8811 -40.8764 -40.8689 -40.8613 -40.8567 -40.8397 -40.8285
   -40.8234 -40.8021 -40.7906 -40.7878 -40.7854 -40.7702 -40.7660 -40.7654
   -40.7620 -40.7570 -40.7264 -40.7222 -40.7120 -40.6783 -40.6643 -40.5921
   -40.4539 -36.0310 -35.9972 -35.9868 -35.9710 -35.9433 -35.9335 -35.9189
   -35.8836 -35.8821 -35.8649 -35.8517 -35.8373 -35.8268 -35.8162 -35.8058
   -35.7967 -35.7862 -35.7813 -35.7788 -35.7545 -35.7417 -35.7239 -35.6890
   -35.6791 -35.6700 -35.6462 -35.6091 -35.5928 -35.5397 -35.4973 -30.7906
   -30.7122 -30.6770 -30.5696 -30.5551 -30.5400 -30.5272 -30.5254 -30.5173
   -30.5060 -30.4787 -30.4459 -30.4015 -30.3977 -30.3962 -30.3775 -30.3551
   -30.3454 -30.3301 -30.3248 -30.3059 -30.2702 -30.2660 -30.2147 -30.1936
   -30.1601 -30.1553 -30.1049 -30.0989 -30.0961 -30.0459 -30.0280 -29.9921
   -21.7207 -16.2918 -10.7217  -9.6597  -9.2468  -9.1724  -9.0635  -8.9230
    -8.5892  -8.3781  -8.3401  -8.2796  -8.2250  -8.1282  -8.0744  -7.9423
    -7.9263  -7.7761  -7.6972  -7.6355  -7.5439  -7.4901  -7.4491  -7.4305
    -7.4084  -7.3696  -7.2853  -7.2823  -7.1382  -7.0384  -6.8584  -6.7987
    -6.7280  -6.6021  -6.4741  -4.3191  -4.2930  -4.0937  -3.9407  -3.8684
    -3.8022  -3.7031  -3.2052  -2.9574  -2.8390  -2.7235  -2.6736  -2.6216
    -2.5813  -2.4634  -2.4532  -2.3900  -2.3321  -2.3316  -2.1710  -2.0718
    -2.0389  -1.9500  -1.8127  -1.7997  -1.7674  -1.7306  -1.6243  -1.5408
    -1.4754  -1.4431  -1.4256  -1.3991  -1.3708  -1.3441  -1.3273  -1.3081
    -1.2969  -1.2845  -1.2646  -1.2471  -1.2194  -1.2083  -1.1763  -1.0725
    -1.0512  -1.0437  -1.0188  -0.9757  -0.9408  -0.8832  -0.8558  -0.7982
    -0.7798  -0.7441  -0.7151  -0.6999  -0.6640  -0.6362  -0.6137  -0.6103
    -0.5874  -0.5802  -0.5665  -0.5454  -0.5382  -0.5101  -0.4419  -0.3531
    -0.2719  -0.2324  -0.1785  -0.1470  -0.1159  -0.0698  -0.0184   0.0545
     0.0598   0.1023   0.1174   0.1573   0.2241   0.2902   0.3207   0.4795
     0.4936   0.6005   0.6265   0.7267   0.7831   0.8910   0.9567   1.0169
     1.0893   1.1027   1.2201   1.2618   1.3444   1.4342   1.4646   1.4898
     1.5267   1.7461   1.7722   1.8061   1.8468   1.9144   1.9905   2.2037
     2.2506   2.3436   2.6597   2.6725   2.7697   2.8411   2.9554   2.9858
     3.0015   3.0641   3.1141   3.1262   3.1840   3.1999   3.2253   3.2736
     3.2770   3.3176   3.3282   3.3615   3.3909   3.4051   3.4517   3.4695
     3.5017   3.5139   3.5649   3.5883   3.6751   3.6938   3.7284   3.7543
     3.7808   3.8493   3.8589   3.8999   3.9472   3.9745   4.0001   4.0199
     4.0750   4.0896   4.1128   4.1520   4.1806   4.2230   4.2475   4.2703
     4.2873   4.3562   4.3751   4.4301   4.4427   4.4667   4.5505   4.5851
     4.5955   4.6421   4.6706   4.7004   4.7272   4.8193   4.8584   4.8826
     4.9109

     the Fermi energy is     3.0139 ev

!    total energy              =   -5386.61244607 Ry
     estimated scf accuracy    <          3.0E-10 Ry
     smearing contrib. (-TS)   =      -0.03633982 Ry
     internal energy E=F+TS    =   -5386.57610625 Ry

     The total energy is F=E-TS. E is the sum of the following terms:
     one-electron contribution =  -55938.65463949 Ry
     hartree contribution      =   28002.63484814 Ry
     xc contribution           =    -807.46779808 Ry
     ewald contribution        =   23579.74447194 Ry
     one-center paw contrib.   =    -222.83298876 Ry

     convergence has been achieved in  43 iterations

     negative rho (up, down):  3.530E-02 0.000E+00

     Forces acting on atoms (cartesian axes, Ry/au):

     atom    1 type  1   force =    -0.00108685   -0.00068611   -0.00164426
     atom    2 type  1   force =    -0.00369755   -0.00627899    0.00362224
     atom    3 type  1   force =    -0.01115349    0.03162522   -0.00290183
     atom    4 type  1   force =    -0.00052602   -0.01512398    0.02932904
     atom    5 type  1   force =    -0.00416489    0.01131550    0.00077016
     atom    6 type  1   force =     0.00795924   -0.00098018    0.02767309
     atom    7 type  1   force =    -0.00578880   -0.01866891   -0.03160672
     atom    8 type  1   force =     0.00852090    0.02291809   -0.01232747
     atom    9 type  1   force =    -0.01689047   -0.00063583   -0.03418030
     atom   10 type  1   force =    -0.00002900   -0.00165741    0.00128567
     atom   11 type  1   force =     0.00226027   -0.00216754   -0.00005712
     atom   12 type  2   force =     0.00046122    0.00081537    0.00327716
     atom   13 type  2   force =    -0.00234533    0.00515703    0.00036393
     atom   14 type  2   force =     0.02255469   -0.00659579    0.01967258
     atom   15 type  2   force =    -0.01242040    0.00025993    0.11293732
     atom   16 type  2   force =     0.00494897    0.00076266    0.09575018
     atom   17 type  2   force =    -0.04893629   -0.01998677   -0.02131556
     atom   18 type  2   force =     0.00305705    0.02621813   -0.03040877
     atom   19 type  2   force =    -0.01418681    0.02109319   -0.03194258
     atom   20 type  2   force =    -0.00081668   -0.01159093    0.00169381
     atom   21 type  2   force =     0.00590238    0.01546591   -0.00597323
     atom   22 type  3   force =     0.00400688   -0.00105009   -0.00168561
     atom   23 type  3   force =    -0.02274441   -0.01096482    0.00172936
     atom   24 type  3   force =     0.01881320    0.02062062   -0.01721295
     atom   25 type  3   force =     0.01541466   -0.01400448    0.06378893
     atom   26 type  3   force =    -0.00317906    0.01189584    0.12324788
     atom   27 type  3   force =     0.02994523   -0.00448553   -0.00028079
     atom   28 type  3   force =    -0.00656231    0.00081962    0.04073537
     atom   29 type  3   force =     0.00047982   -0.00131671   -0.00318983
     atom   30 type  3   force =    -0.00260835   -0.00016505   -0.00405542
     atom   31 type  3   force =     0.00486594   -0.00153464   -0.01192315
     atom   32 type  3   force =    -0.01075416   -0.00118845   -0.01057365
     atom   33 type  4   force =    -0.00007337   -0.00798511   -0.03536477
     atom   34 type  4   force =     0.00874988    0.01246316   -0.00668103
     atom   35 type  4   force =    -0.00192894   -0.01706667   -0.02262166
     atom   36 type  4   force =     0.00067517    0.01041124   -0.03497951
     atom   37 type  4   force =     0.00223040    0.00068421    0.03177909
     atom   38 type  4   force =     0.00882597   -0.01302067    0.02449112
     atom   39 type  4   force =     0.01036207   -0.00538112    0.02441353
     atom   40 type  4   force =     0.00669196   -0.01081162    0.00820010
     atom   41 type  4   force =    -0.00067680    0.00085762   -0.00337079
     atom   42 type  4   force =    -0.00127929   -0.00092434   -0.00037973
     atom   43 type  4   force =    -0.00025256   -0.00056899   -0.00185262
     atom   44 type  4   force =    -0.00039672   -0.00145694   -0.00100954
     atom   45 type  4   force =     0.00754706    0.00701357   -0.04088592
     atom   46 type  4   force =     0.00416817   -0.00074339   -0.04385003
     atom   47 type  4   force =    -0.00561836    0.00045517   -0.02883846
     atom   48 type  4   force =    -0.01197777   -0.01017809   -0.02327667
     atom   49 type  4   force =    -0.00588608    0.00274673    0.00143103
     atom   50 type  4   force =    -0.00001107    0.00080083    0.00221744
     atom   51 type  4   force =     0.00295270    0.00013808    0.00248577
     atom   52 type  4   force =     0.00258056   -0.00361183   -0.00125072
     atom   53 type  4   force =    -0.00232314    0.00090712   -0.02381597
     atom   54 type  4   force =    -0.00591370    0.00602268   -0.03577222
     atom   55 type  4   force =    -0.00149097    0.00403546   -0.03170890
     atom   56 type  4   force =    -0.00140455   -0.00914910   -0.02611451
     atom   57 type  4   force =    -0.01617983    0.00864446   -0.02706361
     atom   58 type  4   force =    -0.00892520   -0.00564043   -0.03895150
     atom   59 type  4   force =     0.01441334    0.01224351   -0.03046066
     atom   60 type  4   force =     0.00226476   -0.01006441   -0.02227387
     atom   61 type  4   force =     0.01020898   -0.00643322    0.02085051
     atom   62 type  4   force =     0.00689915   -0.00592314    0.02890920
     atom   63 type  4   force =     0.01122804   -0.00522765    0.00568917
     atom   64 type  4   force =     0.00225178   -0.00663804    0.03004942
     atom   65 type  4   force =     0.00042259    0.00258393   -0.01298903
     atom   66 type  5   force =    -0.00048431   -0.00073381    0.00974962
     atom   67 type  5   force =    -0.00113015    0.00205513   -0.00010265
     atom   68 type  6   force =     0.00218065   -0.00038922   -0.00124911

     Total force =     0.022572     Total SCF correction =     0.000021
     Energy error            =      6.3E-04 Ry
     Gradient error          =      1.3E-02 Ry/Bohr

     number of scf cycles    =  16
     number of bfgs steps    =  15

     energy             old  =   -5386.6118177017 Ry
     energy             new  =   -5386.6124460721 Ry

     CASE: energy            _new < energy            _old

     new trust radius        =       0.0238913784 bohr
     new conv_thr            =       0.0000000013 Ry


ATOMIC_POSITIONS (angstrom)
Ti               0.0558110568        0.0004074647       16.1733599473
Ti               0.0291331002        8.3621570543       11.5803477355    0   0   0
Ti               2.0975368417        4.1651924041       13.6995846818    0   0   0
Ti               8.3795041056        2.0957563981        9.4724378689    0   0   0
Ti               8.3750099733        6.2687152092        9.4933225157    0   0   0
Ti               4.2170671874        6.2898439467        9.4911460380    0   0   0
Ti               8.3706959315        2.0992468883       13.7196199333    0   0   0
Ti               8.3814371399        6.2587905921       13.6914936631    0   0   0
Ti               4.2074509867        6.2621252961       13.6953624844    0   0   0
Ti               2.1528125659        6.2231558160       15.8117135036
Ti               6.3167886703        6.2673244413       15.7488741961
V                8.4361594134        4.0901933668       15.6900591364
V                4.2853988841        4.0455523053       15.6495363079
V                4.1453105473        4.2119457891       11.5975026988    0   0   0
V                2.1879867013        0.0520231596        9.5054883674    0   0   0
V                2.1522427348        4.1319303501        9.4904675789    0   0   0
V                2.0919720210       -0.0034525136       13.6809547049    0   0   0
V                6.2957223951        4.1813414611       13.7896152224    0   0   0
V                4.2104512702        2.0785028673       13.6089365586    0   0   0
V                2.1048639148        6.2714192178       11.5723879270    0   0   0
V                6.3158808164        6.1438819511       11.5700667150    0   0   0
Cr               4.2729682459       -0.0189090044       15.5445463393
Cr               0.1179128009        4.1786640750       11.5195623927    0   0   0
Cr               4.1681598842        8.2577799257       11.6615352591    0   0   0
Cr               6.1999882077        0.1106418811        9.6948923906    0   0   0
Cr               6.2007452456        4.0563627707        9.3394942948    0   0   0
Cr               6.3039559766        8.3200573949       13.5345114413    0   0   0
Cr               4.2149984025        2.0754774019        9.7444374941    0   0   0
Cr               2.2921700912        2.0148835706       15.5642744513
Cr               6.2765835041        1.9780929259       15.5520682809
Cr               2.0054620409        2.1149661174       11.6192682974    0   0   0
Cr               6.3992485267        2.2488278238       11.6549867199    0   0   0
C                8.3671464633        0.0123762133        9.4921945368    0   0   0
C                8.3685510870        4.1683341954        9.4949958325    0   0   0
C                4.2233794382        0.0660683478        9.5137772640    0   0   0
C                4.2071394793        4.1170355077        9.4900603783    0   0   0
C                8.3753352139       -0.0047460034       13.6879749419    0   0   0
C                8.3555577743        4.1752016178       13.6998947017    0   0   0
C                4.2131653834        0.0054873094       13.6688163572    0   0   0
C                4.2220181648        4.1373219388       13.6924183861    0   0   0
C                2.1414172535        0.1340736938       15.8771021957
C                2.0787270677        4.1126270488       15.9592805719
C                6.1797413236        0.1065824132       15.8737999442
C                6.2226281631        4.1867439181       15.9105593596
C                2.1521326937        0.0175132539       11.5903255372    0   0   0
C                2.1078429860        4.1683083653       11.5671868517    0   0   0
C                6.2417937451        0.0188099573       11.6002801854    0   0   0
C                6.3283074126        4.1569384024       11.5682471185    0   0   0
C                8.1523256191        2.1816269108       15.8437763215
C                8.3468354110        6.3069061747       15.8679103643
C                4.1623223994        2.0779284775       15.7653219735
C                4.1927772768        6.4526200642       15.8888429722
C                0.0147673152        2.1438801594       11.5939557114    0   0   0
C                0.0200697416        6.2277703895       11.5821679336    0   0   0
C                4.2182428542        2.0594943016       11.6100232202    0   0   0
C                4.2117703951        6.2583221129       11.5919858628    0   0   0
C                2.1713130363        2.0860319016        9.4919958919    0   0   0
C                2.1164500536        6.2753611976        9.5156635851    0   0   0
C                6.2203151227        2.0809934926        9.4961719556    0   0   0
C                6.2861737462        6.2618311600        9.5257047400    0   0   0
C                2.1349207790        2.0551228178       13.6855329086    0   0   0
C                2.1043015435        6.2915359703       13.6724452320    0   0   0
C                6.2612712230        2.0678980813       13.6766563617    0   0   0
C                6.2981398968        6.2588382292       13.6653030130    0   0   0
C                2.1622790237        6.0827505095       18.0139354401
O                2.2005978615        5.9373426333       19.1454062791
O                8.3531104904        0.0865141667       18.0118889387
H                7.6608688791        0.4630937001       18.5750034040



     Writing config-only to output data dir ./tmp/hec3_CrTiV_f100_COOH_ads.save/ :
     XML data file
     NEW-OLD atomic charge density approx. for the potential

     Check: negative core charge=   -0.000005

     negative rho (up, down):  3.540E-02 0.000E+00

     total cpu time spent up to now is     6406.6 secs

     Self-consistent Calculation

     iteration #  1     ecut=    60.00 Ry     beta= 0.30
     Davidson diagonalization with overlap
     ethr =  1.00E-06,  avg # of iterations =  5.0

     negative rho (up, down):  3.539E-02 0.000E+00

     total cpu time spent up to now is     6416.1 secs

     total energy              =   -5386.61213761 Ry
     estimated scf accuracy    <       0.00201282 Ry

     iteration #  2     ecut=    60.00 Ry     beta= 0.30
     Davidson diagonalization with overlap
     c_bands:  1 eigenvalues not converged
     ethr =  3.59E-07,  avg # of iterations = 20.0

     negative rho (up, down):  3.539E-02 0.000E+00

     total cpu time spent up to now is     6428.7 secs

     total energy              =   -5386.61045481 Ry
     estimated scf accuracy    <       0.06091199 Ry

     iteration #  3     ecut=    60.00 Ry     beta= 0.30
     Davidson diagonalization with overlap
     ethr =  3.59E-07,  avg # of iterations =  8.0

     negative rho (up, down):  3.540E-02 0.000E+00

     total cpu time spent up to now is     6437.9 secs

     total energy              =   -5386.61246335 Ry
     estimated scf accuracy    <       0.01153440 Ry

     iteration #  4     ecut=    60.00 Ry     beta= 0.30
     Davidson diagonalization with overlap
     ethr =  3.59E-07,  avg # of iterations =  5.0

     negative rho (up, down):  3.539E-02 0.000E+00

     total cpu time spent up to now is     6445.5 secs

     total energy              =   -5386.61259163 Ry
     estimated scf accuracy    <       0.01173872 Ry

     iteration #  5     ecut=    60.00 Ry     beta= 0.30
     Davidson diagonalization with overlap
     ethr =  3.59E-07,  avg # of iterations =  2.0

     negative rho (up, down):  3.540E-02 0.000E+00

     total cpu time spent up to now is     6452.5 secs

     total energy              =   -5386.61278549 Ry
     estimated scf accuracy    <       0.00188721 Ry

     iteration #  6     ecut=    60.00 Ry     beta= 0.30
     Davidson diagonalization with overlap
     ethr =  3.36E-07,  avg # of iterations =  1.0

     negative rho (up, down):  3.540E-02 0.000E+00

     total cpu time spent up to now is     6459.3 secs

     total energy              =   -5386.61281701 Ry
     estimated scf accuracy    <       0.00077572 Ry

     iteration #  7     ecut=    60.00 Ry     beta= 0.30
     Davidson diagonalization with overlap
     ethr =  1.38E-07,  avg # of iterations =  2.0

     negative rho (up, down):  3.540E-02 0.000E+00

     total cpu time spent up to now is     6466.7 secs

     total energy              =   -5386.61281559 Ry
     estimated scf accuracy    <       0.00134681 Ry

     iteration #  8     ecut=    60.00 Ry     beta= 0.30
     Davidson diagonalization with overlap
     ethr =  1.38E-07,  avg # of iterations =  1.0

     negative rho (up, down):  3.540E-02 0.000E+00

     total cpu time spent up to now is     6473.6 secs

     total energy              =   -5386.61284455 Ry
     estimated scf accuracy    <       0.00053360 Ry

     iteration #  9     ecut=    60.00 Ry     beta= 0.30
     Davidson diagonalization with overlap
     ethr =  9.51E-08,  avg # of iterations =  1.0

     negative rho (up, down):  3.540E-02 0.000E+00

     total cpu time spent up to now is     6480.3 secs

     total energy              =   -5386.61285397 Ry
     estimated scf accuracy    <       0.00027600 Ry

     iteration # 10     ecut=    60.00 Ry     beta= 0.30
     Davidson diagonalization with overlap
     ethr =  4.92E-08,  avg # of iterations =  1.0

     negative rho (up, down):  3.540E-02 0.000E+00

     total cpu time spent up to now is     6487.0 secs

     total energy              =   -5386.61286056 Ry
     estimated scf accuracy    <       0.00011456 Ry

     iteration # 11     ecut=    60.00 Ry     beta= 0.30
     Davidson diagonalization with overlap
     ethr =  2.04E-08,  avg # of iterations =  2.0

     negative rho (up, down):  3.540E-02 0.000E+00

     total cpu time spent up to now is     6494.4 secs

     total energy              =   -5386.61286073 Ry
     estimated scf accuracy    <       0.00017298 Ry

     iteration # 12     ecut=    60.00 Ry     beta= 0.30
     Davidson diagonalization with overlap
     ethr =  2.04E-08,  avg # of iterations =  1.0

     negative rho (up, down):  3.540E-02 0.000E+00

     total cpu time spent up to now is     6501.1 secs

     total energy              =   -5386.61286651 Ry
     estimated scf accuracy    <       0.00003246 Ry

     iteration # 13     ecut=    60.00 Ry     beta= 0.30
     Davidson diagonalization with overlap
     ethr =  5.79E-09,  avg # of iterations =  2.0

     negative rho (up, down):  3.540E-02 0.000E+00

     total cpu time spent up to now is     6508.4 secs

     total energy              =   -5386.61286714 Ry
     estimated scf accuracy    <       0.00004239 Ry

     iteration # 14     ecut=    60.00 Ry     beta= 0.30
     Davidson diagonalization with overlap
     ethr =  5.79E-09,  avg # of iterations =  1.0

     negative rho (up, down):  3.540E-02 0.000E+00

     total cpu time spent up to now is     6514.8 secs

     total energy              =   -5386.61286761 Ry
     estimated scf accuracy    <       0.00001932 Ry

     iteration # 15     ecut=    60.00 Ry     beta= 0.30
     Davidson diagonalization with overlap
     ethr =  3.44E-09,  avg # of iterations =  2.0

     negative rho (up, down):  3.540E-02 0.000E+00

     total cpu time spent up to now is     6521.7 secs

     total energy              =   -5386.61286607 Ry
     estimated scf accuracy    <       0.00017743 Ry

     iteration # 16     ecut=    60.00 Ry     beta= 0.30
     Davidson diagonalization with overlap
     ethr =  3.44E-09,  avg # of iterations =  1.0

     negative rho (up, down):  3.540E-02 0.000E+00

     total cpu time spent up to now is     6528.4 secs

     total energy              =   -5386.61286866 Ry
     estimated scf accuracy    <       0.00000573 Ry

     iteration # 17     ecut=    60.00 Ry     beta= 0.30
     Davidson diagonalization with overlap
     ethr =  1.02E-09,  avg # of iterations =  2.0

     negative rho (up, down):  3.540E-02 0.000E+00

     total cpu time spent up to now is     6535.9 secs

     total energy              =   -5386.61286882 Ry
     estimated scf accuracy    <       0.00000465 Ry

     iteration # 18     ecut=    60.00 Ry     beta= 0.30
     Davidson diagonalization with overlap
     ethr =  8.30E-10,  avg # of iterations =  2.0

     negative rho (up, down):  3.540E-02 0.000E+00

     total cpu time spent up to now is     6543.3 secs

     total energy              =   -5386.61286872 Ry
     estimated scf accuracy    <       0.00001058 Ry

     iteration # 19     ecut=    60.00 Ry     beta= 0.30
     Davidson diagonalization with overlap
     ethr =  8.30E-10,  avg # of iterations =  1.0

     negative rho (up, down):  3.540E-02 0.000E+00

     total cpu time spent up to now is     6550.1 secs

     total energy              =   -5386.61286892 Ry
     estimated scf accuracy    <       0.00000359 Ry

     iteration # 20     ecut=    60.00 Ry     beta= 0.30
     Davidson diagonalization with overlap
     ethr =  6.40E-10,  avg # of iterations =  2.0

     negative rho (up, down):  3.540E-02 0.000E+00

     total cpu time spent up to now is     6557.4 secs

     total energy              =   -5386.61286895 Ry
     estimated scf accuracy    <       0.00000391 Ry

     iteration # 21     ecut=    60.00 Ry     beta= 0.30
     Davidson diagonalization with overlap
     ethr =  6.40E-10,  avg # of iterations =  1.0

     negative rho (up, down):  3.540E-02 0.000E+00

     total cpu time spent up to now is     6564.4 secs

     total energy              =   -5386.61286901 Ry
     estimated scf accuracy    <       0.00000209 Ry

     iteration # 22     ecut=    60.00 Ry     beta= 0.30
     Davidson diagonalization with overlap
     ethr =  3.73E-10,  avg # of iterations =  1.0

     negative rho (up, down):  3.540E-02 0.000E+00

     total cpu time spent up to now is     6570.9 secs

     total energy              =   -5386.61286908 Ry
     estimated scf accuracy    <       0.00000106 Ry

     iteration # 23     ecut=    60.00 Ry     beta= 0.30
     Davidson diagonalization with overlap
     ethr =  1.89E-10,  avg # of iterations =  2.0

     negative rho (up, down):  3.540E-02 0.000E+00

     total cpu time spent up to now is     6577.8 secs

     total energy              =   -5386.61286907 Ry
     estimated scf accuracy    <       0.00000083 Ry

     iteration # 24     ecut=    60.00 Ry     beta= 0.30
     Davidson diagonalization with overlap
     ethr =  1.48E-10,  avg # of iterations =  2.0

     negative rho (up, down):  3.540E-02 0.000E+00

     total cpu time spent up to now is     6585.2 secs

     total energy              =   -5386.61286907 Ry
     estimated scf accuracy    <       0.00000155 Ry

     iteration # 25     ecut=    60.00 Ry     beta= 0.30
     Davidson diagonalization with overlap
     ethr =  1.48E-10,  avg # of iterations =  2.0

     negative rho (up, down):  3.540E-02 0.000E+00

     total cpu time spent up to now is     6592.5 secs

     total energy              =   -5386.61286903 Ry
     estimated scf accuracy    <       0.00000448 Ry

     iteration # 26     ecut=    60.00 Ry     beta= 0.30
     Davidson diagonalization with overlap
     ethr =  1.48E-10,  avg # of iterations =  2.0

     negative rho (up, down):  3.540E-02 0.000E+00

     total cpu time spent up to now is     6599.5 secs

     total energy              =   -5386.61286910 Ry
     estimated scf accuracy    <       0.00000087 Ry

     iteration # 27     ecut=    60.00 Ry     beta= 0.30
     Davidson diagonalization with overlap
     ethr =  1.48E-10,  avg # of iterations =  1.0

     negative rho (up, down):  3.540E-02 0.000E+00

     total cpu time spent up to now is     6606.2 secs

     total energy              =   -5386.61286912 Ry
     estimated scf accuracy    <       0.00000028 Ry

     iteration # 28     ecut=    60.00 Ry     beta= 0.30
     Davidson diagonalization with overlap
     ethr =  4.99E-11,  avg # of iterations =  1.0

     negative rho (up, down):  3.540E-02 0.000E+00

     total cpu time spent up to now is     6613.0 secs

     total energy              =   -5386.61286912 Ry
     estimated scf accuracy    <       0.00000040 Ry

     iteration # 29     ecut=    60.00 Ry     beta= 0.30
     Davidson diagonalization with overlap
     ethr =  4.99E-11,  avg # of iterations =  1.0

     negative rho (up, down):  3.540E-02 0.000E+00

     total cpu time spent up to now is     6620.1 secs

     total energy              =   -5386.61286913 Ry
     estimated scf accuracy    <       0.00000032 Ry

     iteration # 30     ecut=    60.00 Ry     beta= 0.30
     Davidson diagonalization with overlap
     ethr =  4.99E-11,  avg # of iterations =  1.0

     negative rho (up, down):  3.540E-02 0.000E+00

     total cpu time spent up to now is     6627.1 secs

     total energy              =   -5386.61286913 Ry
     estimated scf accuracy    <       0.00000030 Ry

     iteration # 31     ecut=    60.00 Ry     beta= 0.30
     Davidson diagonalization with overlap
     ethr =  4.99E-11,  avg # of iterations =  1.0

     negative rho (up, down):  3.540E-02 0.000E+00

     total cpu time spent up to now is     6633.7 secs

     total energy              =   -5386.61286913 Ry
     estimated scf accuracy    <       0.00000012 Ry

     iteration # 32     ecut=    60.00 Ry     beta= 0.30
     Davidson diagonalization with overlap
     ethr =  2.15E-11,  avg # of iterations =  1.0

     negative rho (up, down):  3.540E-02 0.000E+00

     total cpu time spent up to now is     6640.4 secs

     total energy              =   -5386.61286914 Ry
     estimated scf accuracy    <       0.00000006 Ry

     iteration # 33     ecut=    60.00 Ry     beta= 0.30
     Davidson diagonalization with overlap
     ethr =  1.04E-11,  avg # of iterations =  1.0

     negative rho (up, down):  3.540E-02 0.000E+00

     total cpu time spent up to now is     6647.5 secs

     total energy              =   -5386.61286914 Ry
     estimated scf accuracy    <       0.00000002 Ry

     iteration # 34     ecut=    60.00 Ry     beta= 0.30
     Davidson diagonalization with overlap
     ethr =  3.52E-12,  avg # of iterations =  5.0

     negative rho (up, down):  3.540E-02 0.000E+00

     total cpu time spent up to now is     6655.7 secs

     total energy              =   -5386.61286914 Ry
     estimated scf accuracy    <       0.00000009 Ry

     iteration # 35     ecut=    60.00 Ry     beta= 0.30
     Davidson diagonalization with overlap
     ethr =  3.52E-12,  avg # of iterations =  5.0

     negative rho (up, down):  3.540E-02 0.000E+00

     total cpu time spent up to now is     6664.0 secs

     total energy              =   -5386.61286914 Ry
     estimated scf accuracy    <       0.00000015 Ry

     iteration # 36     ecut=    60.00 Ry     beta= 0.30
     Davidson diagonalization with overlap
     ethr =  3.52E-12,  avg # of iterations =  5.0

     negative rho (up, down):  3.540E-02 0.000E+00

     total cpu time spent up to now is     6672.4 secs

     total energy              =   -5386.61286914 Ry
     estimated scf accuracy    <       0.00000011 Ry

     iteration # 37     ecut=    60.00 Ry     beta= 0.30
     Davidson diagonalization with overlap
     ethr =  3.52E-12,  avg # of iterations =  5.0

     negative rho (up, down):  3.540E-02 0.000E+00

     total cpu time spent up to now is     6680.2 secs

     total energy              =   -5386.61286914 Ry
     estimated scf accuracy    <       0.00000002 Ry

     iteration # 38     ecut=    60.00 Ry     beta= 0.30
     Davidson diagonalization with overlap
     ethr =  3.38E-12,  avg # of iterations =  1.0

     negative rho (up, down):  3.540E-02 0.000E+00

     total cpu time spent up to now is     6687.1 secs

     total energy              =   -5386.61286914 Ry
     estimated scf accuracy    <       0.00000002 Ry

     iteration # 39     ecut=    60.00 Ry     beta= 0.30
     Davidson diagonalization with overlap
     ethr =  3.38E-12,  avg # of iterations =  2.0

     negative rho (up, down):  3.540E-02 0.000E+00

     total cpu time spent up to now is     6694.2 secs

     total energy              =   -5386.61286914 Ry
     estimated scf accuracy    <       0.00000002 Ry

     iteration # 40     ecut=    60.00 Ry     beta= 0.30
     Davidson diagonalization with overlap
     ethr =  3.38E-12,  avg # of iterations =  1.0

     negative rho (up, down):  3.540E-02 0.000E+00

     total cpu time spent up to now is     6700.9 secs

     total energy              =   -5386.61286914 Ry
     estimated scf accuracy    <       0.00000003 Ry

     iteration # 41     ecut=    60.00 Ry     beta= 0.30
     Davidson diagonalization with overlap
     ethr =  3.38E-12,  avg # of iterations =  1.0

     negative rho (up, down):  3.540E-02 0.000E+00

     total cpu time spent up to now is     6707.4 secs

     total energy              =   -5386.61286914 Ry
     estimated scf accuracy    <       0.00000001 Ry

     iteration # 42     ecut=    60.00 Ry     beta= 0.30
     Davidson diagonalization with overlap
     ethr =  1.95E-12,  avg # of iterations =  2.0

     negative rho (up, down):  3.540E-02 0.000E+00

     total cpu time spent up to now is     6714.6 secs

     total energy              =   -5386.61286914 Ry
     estimated scf accuracy    <          6.9E-09 Ry

     iteration # 43     ecut=    60.00 Ry     beta= 0.30
     Davidson diagonalization with overlap
     ethr =  1.24E-12,  avg # of iterations =  1.0

     negative rho (up, down):  3.540E-02 0.000E+00

     total cpu time spent up to now is     6721.3 secs

     total energy              =   -5386.61286914 Ry
     estimated scf accuracy    <          2.0E-09 Ry

     iteration # 44     ecut=    60.00 Ry     beta= 0.30
     Davidson diagonalization with overlap
     ethr =  3.50E-13,  avg # of iterations =  2.0

     negative rho (up, down):  3.540E-02 0.000E+00

     total cpu time spent up to now is     6728.8 secs

     total energy              =   -5386.61286914 Ry
     estimated scf accuracy    <          3.4E-09 Ry

     iteration # 45     ecut=    60.00 Ry     beta= 0.30
     Davidson diagonalization with overlap
     ethr =  3.50E-13,  avg # of iterations =  2.0

     negative rho (up, down):  3.540E-02 0.000E+00

     total cpu time spent up to now is     6735.9 secs

     total energy              =   -5386.61286915 Ry
     estimated scf accuracy    <          9.7E-09 Ry

     iteration # 46     ecut=    60.00 Ry     beta= 0.30
     Davidson diagonalization with overlap
     ethr =  3.50E-13,  avg # of iterations =  2.0

     negative rho (up, down):  3.540E-02 0.000E+00

     total cpu time spent up to now is     6743.3 secs

     total energy              =   -5386.61286914 Ry
     estimated scf accuracy    <          2.9E-09 Ry

     iteration # 47     ecut=    60.00 Ry     beta= 0.30
     Davidson diagonalization with overlap
     ethr =  3.50E-13,  avg # of iterations =  1.0

     negative rho (up, down):  3.540E-02 0.000E+00

     total cpu time spent up to now is     6750.1 secs

     total energy              =   -5386.61286915 Ry
     estimated scf accuracy    <          2.5E-09 Ry

     iteration # 48     ecut=    60.00 Ry     beta= 0.30
     Davidson diagonalization with overlap
     ethr =  3.50E-13,  avg # of iterations =  2.0

     negative rho (up, down):  3.540E-02 0.000E+00

     total cpu time spent up to now is     6757.1 secs

     total energy              =   -5386.61286915 Ry
     estimated scf accuracy    <          2.7E-09 Ry

     iteration # 49     ecut=    60.00 Ry     beta= 0.30
     Davidson diagonalization with overlap
     ethr =  3.50E-13,  avg # of iterations =  1.0

     negative rho (up, down):  3.540E-02 0.000E+00

     total cpu time spent up to now is     6763.7 secs

     total energy              =   -5386.61286914 Ry
     estimated scf accuracy    <          2.5E-09 Ry

     iteration # 50     ecut=    60.00 Ry     beta= 0.30
     Davidson diagonalization with overlap
     ethr =  3.50E-13,  avg # of iterations =  1.0

     negative rho (up, down):  3.540E-02 0.000E+00

     total cpu time spent up to now is     6770.8 secs

     total energy              =   -5386.61286914 Ry
     estimated scf accuracy    <          1.7E-09 Ry

     iteration # 51     ecut=    60.00 Ry     beta= 0.30
     Davidson diagonalization with overlap
     ethr =  2.96E-13,  avg # of iterations =  1.0

     negative rho (up, down):  3.540E-02 0.000E+00

     total cpu time spent up to now is     6777.5 secs

     End of self-consistent calculation

          k = 0.0000 0.0000 0.0000 ( 46961 PWs)   bands (ev):

   -69.5634 -69.5323 -69.5040 -69.4927 -69.4739 -69.4575 -69.4372 -69.4283
   -69.4259 -69.4147 -69.2285 -62.0511 -62.0356 -62.0228 -61.9906 -61.9804
   -61.9019 -61.9013 -61.8126 -61.7684 -61.7351 -54.3294 -54.2810 -54.2659
   -54.1292 -54.0084 -53.9759 -53.9609 -53.9424 -53.8700 -53.8032 -53.7668
   -41.0135 -40.9797 -40.9695 -40.9542 -40.9424 -40.9363 -40.9020 -40.8982
   -40.8810 -40.8799 -40.8762 -40.8683 -40.8604 -40.8557 -40.8387 -40.8278
   -40.8231 -40.8011 -40.7893 -40.7870 -40.7842 -40.7690 -40.7668 -40.7653
   -40.7608 -40.7529 -40.7255 -40.7213 -40.7086 -40.6814 -40.6628 -40.5910
   -40.4527 -36.0306 -35.9966 -35.9843 -35.9701 -35.9422 -35.9327 -35.9173
   -35.8834 -35.8825 -35.8640 -35.8505 -35.8362 -35.8262 -35.8154 -35.8053
   -35.7962 -35.7859 -35.7810 -35.7802 -35.7541 -35.7411 -35.7231 -35.6913
   -35.6788 -35.6709 -35.6405 -35.6122 -35.5894 -35.5385 -35.4984 -30.7971
   -30.7117 -30.6759 -30.5730 -30.5546 -30.5401 -30.5262 -30.5245 -30.5162
   -30.5093 -30.4793 -30.4463 -30.4012 -30.3992 -30.3967 -30.3773 -30.3553
   -30.3446 -30.3309 -30.3245 -30.3065 -30.2705 -30.2665 -30.2150 -30.1942
   -30.1608 -30.1576 -30.1054 -30.1020 -30.0945 -30.0465 -30.0288 -29.9937
   -21.7016 -16.3116 -10.7220  -9.6606  -9.2472  -9.1732  -9.0633  -8.9231
    -8.5890  -8.3790  -8.3416  -8.2812  -8.2264  -8.1277  -8.0753  -7.9419
    -7.9263  -7.7757  -7.6975  -7.6360  -7.5440  -7.4915  -7.4513  -7.4302
    -7.4081  -7.3692  -7.2866  -7.2810  -7.1373  -7.0374  -6.8575  -6.7984
    -6.7285  -6.6003  -6.4747  -4.3139  -4.2804  -4.1058  -3.9409  -3.8685
    -3.8033  -3.7053  -3.2078  -2.9580  -2.8396  -2.7263  -2.6717  -2.6225
    -2.5820  -2.4643  -2.4541  -2.3896  -2.3326  -2.3322  -2.1716  -2.0723
    -2.0403  -1.9497  -1.8135  -1.8002  -1.7677  -1.7307  -1.6261  -1.5425
    -1.4764  -1.4436  -1.4256  -1.3995  -1.3727  -1.3437  -1.3275  -1.3081
    -1.2969  -1.2841  -1.2666  -1.2480  -1.2193  -1.2086  -1.1755  -1.0745
    -1.0511  -1.0466  -1.0193  -0.9766  -0.9410  -0.8842  -0.8556  -0.8004
    -0.7803  -0.7432  -0.7160  -0.6995  -0.6682  -0.6385  -0.6144  -0.6094
    -0.5879  -0.5809  -0.5683  -0.5460  -0.5387  -0.5109  -0.4429  -0.3525
    -0.2728  -0.2317  -0.1819  -0.1467  -0.1201  -0.0697  -0.0194   0.0537
     0.0569   0.1038   0.1179   0.1550   0.2221   0.2839   0.3224   0.4774
     0.4947   0.5991   0.6231   0.7261   0.7811   0.8909   0.9562   1.0173
     1.0892   1.1018   1.2193   1.2623   1.3453   1.4336   1.4657   1.4889
     1.5270   1.7490   1.7722   1.8032   1.8488   1.9156   1.9865   2.2061
     2.2510   2.3377   2.6623   2.6743   2.7700   2.8418   2.9564   2.9867
     3.0011   3.0641   3.1162   3.1262   3.1875   3.2035   3.2254   3.2728
     3.2776   3.3176   3.3300   3.3617   3.3912   3.4076   3.4546   3.4733
     3.5031   3.5148   3.5695   3.5883   3.6734   3.6942   3.7304   3.7549
     3.7815   3.8521   3.8601   3.9010   3.9430   3.9745   3.9992   4.0206
     4.0753   4.0894   4.1148   4.1521   4.1794   4.2246   4.2435   4.2704
     4.2876   4.3562   4.3737   4.4303   4.4435   4.4678   4.5529   4.5863
     4.5943   4.6400   4.6705   4.6983   4.7294   4.8208   4.8591   4.8803
     4.9119

     the Fermi energy is     3.0148 ev

!    total energy              =   -5386.61286914 Ry
     estimated scf accuracy    <          8.2E-10 Ry
     smearing contrib. (-TS)   =      -0.03633103 Ry
     internal energy E=F+TS    =   -5386.57653811 Ry

     The total energy is F=E-TS. E is the sum of the following terms:
     one-electron contribution =  -55947.89925216 Ry
     hartree contribution      =   28007.25989379 Ry
     xc contribution           =    -807.47708238 Ry
     ewald contribution        =   23584.37287341 Ry
     one-center paw contrib.   =    -222.83297078 Ry

     convergence has been achieved in  51 iterations

     negative rho (up, down):  3.540E-02 0.000E+00

     Forces acting on atoms (cartesian axes, Ry/au):

     atom    1 type  1   force =    -0.00062522    0.00011236   -0.00395221
     atom    2 type  1   force =    -0.00371683   -0.00624573    0.00354957
     atom    3 type  1   force =    -0.01106170    0.03188783   -0.00321808
     atom    4 type  1   force =    -0.00057472   -0.01512740    0.02938882
     atom    5 type  1   force =    -0.00420977    0.01129312    0.00082251
     atom    6 type  1   force =     0.00793885   -0.00107026    0.02760890
     atom    7 type  1   force =    -0.00629395   -0.01879911   -0.03210135
     atom    8 type  1   force =     0.00851526    0.02287410   -0.01274130
     atom    9 type  1   force =    -0.01701112   -0.00092484   -0.03410076
     atom   10 type  1   force =    -0.00071298   -0.00097107   -0.00114438
     atom   11 type  1   force =     0.00110234   -0.00243702   -0.00253903
     atom   12 type  2   force =     0.00074639    0.00176293    0.00642865
     atom   13 type  2   force =    -0.00246833    0.00296537    0.00098250
     atom   14 type  2   force =     0.02265568   -0.00653957    0.01971397
     atom   15 type  2   force =    -0.01249676    0.00032278    0.11294129
     atom   16 type  2   force =     0.00486692    0.00075977    0.09575010
     atom   17 type  2   force =    -0.04922209   -0.02058996   -0.02068710
     atom   18 type  2   force =     0.00258216    0.02685344   -0.03090013
     atom   19 type  2   force =    -0.01442525    0.02105241   -0.03291567
     atom   20 type  2   force =    -0.00088395   -0.01150915    0.00169809
     atom   21 type  2   force =     0.00580889    0.01564729   -0.00594959
     atom   22 type  3   force =     0.00134658   -0.00245372   -0.00119061
     atom   23 type  3   force =    -0.02268264   -0.01092829    0.00213146
     atom   24 type  3   force =     0.01894427    0.02055870   -0.01736882
     atom   25 type  3   force =     0.01543129   -0.01399171    0.06379477
     atom   26 type  3   force =    -0.00321747    0.01199993    0.12312197
     atom   27 type  3   force =     0.02986872   -0.00548004    0.00004737
     atom   28 type  3   force =    -0.00661160    0.00078125    0.04076806
     atom   29 type  3   force =     0.00042058   -0.00156824    0.00073961
     atom   30 type  3   force =    -0.00190781   -0.00197172   -0.00051651
     atom   31 type  3   force =     0.00511184   -0.00169269   -0.01220038
     atom   32 type  3   force =    -0.01094676   -0.00108654   -0.01047962
     atom   33 type  4   force =    -0.00007806   -0.00798770   -0.03541361
     atom   34 type  4   force =     0.00874137    0.01244007   -0.00681225
     atom   35 type  4   force =    -0.00190139   -0.01706127   -0.02262494
     atom   36 type  4   force =     0.00069969    0.01047340   -0.03498721
     atom   37 type  4   force =     0.00196186    0.00061209    0.03226541
     atom   38 type  4   force =     0.00896940   -0.01273921    0.02341584
     atom   39 type  4   force =     0.01084371   -0.00525611    0.02405498
     atom   40 type  4   force =     0.00673584   -0.01007098    0.00742459
     atom   41 type  4   force =     0.00018431    0.00198189   -0.00245640
     atom   42 type  4   force =    -0.00083466   -0.00187926   -0.00112494
     atom   43 type  4   force =     0.00041305    0.00035209   -0.00204527
     atom   44 type  4   force =     0.00041512   -0.00131209   -0.00076508
     atom   45 type  4   force =     0.00758083    0.00710482   -0.04127817
     atom   46 type  4   force =     0.00422171   -0.00069259   -0.04386885
     atom   47 type  4   force =    -0.00562855    0.00045853   -0.02910043
     atom   48 type  4   force =    -0.01202616   -0.01033952   -0.02346380
     atom   49 type  4   force =    -0.00456731    0.00184032    0.00145174
     atom   50 type  4   force =     0.00030443    0.00176691    0.00235993
     atom   51 type  4   force =     0.00241024    0.00078926    0.00125448
     atom   52 type  4   force =     0.00265207   -0.00243359   -0.00149906
     atom   53 type  4   force =    -0.00218094    0.00097258   -0.02359802
     atom   54 type  4   force =    -0.00587122    0.00609561   -0.03557091
     atom   55 type  4   force =    -0.00137105    0.00406052   -0.03145296
     atom   56 type  4   force =    -0.00134775   -0.00911236   -0.02609911
     atom   57 type  4   force =    -0.01619737    0.00861377   -0.02702134
     atom   58 type  4   force =    -0.00887470   -0.00568679   -0.03890083
     atom   59 type  4   force =     0.01445042    0.01218651   -0.03033257
     atom   60 type  4   force =     0.00225467   -0.01013634   -0.02220190
     atom   61 type  4   force =     0.01074652   -0.00634087    0.01990674
     atom   62 type  4   force =     0.00711762   -0.00579640    0.02911736
     atom   63 type  4   force =     0.01081695   -0.00509349    0.00383174
     atom   64 type  4   force =     0.00243551   -0.00675826    0.03032479
     atom   65 type  4   force =     0.00030183    0.00199233   -0.00901838
     atom   66 type  5   force =    -0.00047731   -0.00029105    0.00668913
     atom   67 type  5   force =    -0.00033623    0.00155387    0.00032694
     atom   68 type  6   force =     0.00116474    0.00020912   -0.00026970

     Total force =     0.018133     Total SCF correction =     0.000038
     Energy error            =      4.2E-04 Ry
     Gradient error          =      9.0E-03 Ry/Bohr

     number of scf cycles    =  17
     number of bfgs steps    =  16

     energy             old  =   -5386.6124460721 Ry
     energy             new  =   -5386.6128691419 Ry

     CASE: energy            _new < energy            _old

     new trust radius        =       0.0301519541 bohr
     new conv_thr            =       0.0000000010 Ry


ATOMIC_POSITIONS (angstrom)
Ti               0.0544160179       -0.0012919432       16.1711612520
Ti               0.0291331002        8.3621570543       11.5803477355    0   0   0
Ti               2.0975368417        4.1651924041       13.6995846818    0   0   0
Ti               8.3795041056        2.0957563981        9.4724378689    0   0   0
Ti               8.3750099733        6.2687152092        9.4933225157    0   0   0
Ti               4.2170671874        6.2898439467        9.4911460380    0   0   0
Ti               8.3706959315        2.0992468883       13.7196199333    0   0   0
Ti               8.3814371399        6.2587905921       13.6914936631    0   0   0
Ti               4.2074509867        6.2621252961       13.6953624844    0   0   0
Ti               2.1551471118        6.2226039090       15.8126336021
Ti               6.3195284259        6.2648862608       15.7495092569
V                8.4380981770        4.0929456268       15.6903279246
V                4.2841229585        4.0527957542       15.6490118592
V                4.1453105473        4.2119457891       11.5975026988    0   0   0
V                2.1879867013        0.0520231596        9.5054883674    0   0   0
V                2.1522427348        4.1319303501        9.4904675789    0   0   0
V                2.0919720210       -0.0034525136       13.6809547049    0   0   0
V                6.2957223951        4.1813414611       13.7896152224    0   0   0
V                4.2104512702        2.0785028673       13.6089365586    0   0   0
V                2.1048639148        6.2714192178       11.5723879270    0   0   0
V                6.3158808164        6.1438819511       11.5700667150    0   0   0
Cr               4.2818094820       -0.0191854341       15.5432805328
Cr               0.1179128009        4.1786640750       11.5195623927    0   0   0
Cr               4.1681598842        8.2577799257       11.6615352591    0   0   0
Cr               6.1999882077        0.1106418811        9.6948923906    0   0   0
Cr               6.2007452456        4.0563627707        9.3394942948    0   0   0
Cr               6.3039559766        8.3200573949       13.5345114413    0   0   0
Cr               4.2149984025        2.0754774019        9.7444374941    0   0   0
Cr               2.2965709408        2.0130184233       15.5621374990
Cr               6.2734098979        1.9803194724       15.5482493587
Cr               2.0054620409        2.1149661174       11.6192682974    0   0   0
Cr               6.3992485267        2.2488278238       11.6549867199    0   0   0
C                8.3671464633        0.0123762133        9.4921945368    0   0   0
C                8.3685510870        4.1683341954        9.4949958325    0   0   0
C                4.2233794382        0.0660683478        9.5137772640    0   0   0
C                4.2071394793        4.1170355077        9.4900603783    0   0   0
C                8.3753352139       -0.0047460034       13.6879749419    0   0   0
C                8.3555577743        4.1752016178       13.6998947017    0   0   0
C                4.2131653834        0.0054873094       13.6688163572    0   0   0
C                4.2220181648        4.1373219388       13.6924183861    0   0   0
C                2.1380468278        0.1348545340       15.8699237761
C                2.0754899992        4.1113172492       15.9595586694
C                6.1799847783        0.1036750213       15.8692496424
C                6.2196376555        4.1853849735       15.9078223359
C                2.1521326937        0.0175132539       11.5903255372    0   0   0
C                2.1078429860        4.1683083653       11.5671868517    0   0   0
C                6.2417937451        0.0188099573       11.6002801854    0   0   0
C                6.3283074126        4.1569384024       11.5682471185    0   0   0
C                8.1371318531        2.1860265020       15.8458687594
C                8.3469279250        6.3045020188       15.8731201651
C                4.1636766496        2.0778392767       15.7674697796
C                4.1954697885        6.4462252039       15.8894732828
C                0.0147673152        2.1438801594       11.5939557114    0   0   0
C                0.0200697416        6.2277703895       11.5821679336    0   0   0
C                4.2182428542        2.0594943016       11.6100232202    0   0   0
C                4.2117703951        6.2583221129       11.5919858628    0   0   0
C                2.1713130363        2.0860319016        9.4919958919    0   0   0
C                2.1164500536        6.2753611976        9.5156635851    0   0   0
C                6.2203151227        2.0809934926        9.4961719556    0   0   0
C                6.2861737462        6.2618311600        9.5257047400    0   0   0
C                2.1349207790        2.0551228178       13.6855329086    0   0   0
C                2.1043015435        6.2915359703       13.6724452320    0   0   0
C                6.2612712230        2.0678980813       13.6766563617    0   0   0
C                6.2981398968        6.2588382292       13.6653030130    0   0   0
C                2.1642700959        6.0844576016       18.0100201612
O                2.1984161498        5.9394139233       19.1434528785
O                8.3535723817        0.0898907584       18.0094972042
H                7.6628155034        0.4639720796       18.5749084807



     Writing config-only to output data dir ./tmp/hec3_CrTiV_f100_COOH_ads.save/ :
     XML data file
     NEW-OLD atomic charge density approx. for the potential

     Check: negative core charge=   -0.000005

     negative rho (up, down):  3.528E-02 0.000E+00

     total cpu time spent up to now is     6789.9 secs

     Self-consistent Calculation

     iteration #  1     ecut=    60.00 Ry     beta= 0.30
     Davidson diagonalization with overlap
     ethr =  1.00E-06,  avg # of iterations =  5.0

     negative rho (up, down):  3.527E-02 0.000E+00

     total cpu time spent up to now is     6799.4 secs

     total energy              =   -5386.61243602 Ry
     estimated scf accuracy    <       0.00206452 Ry

     iteration #  2     ecut=    60.00 Ry     beta= 0.30
     Davidson diagonalization with overlap
     ethr =  3.68E-07,  avg # of iterations = 15.0

     negative rho (up, down):  3.527E-02 0.000E+00

     total cpu time spent up to now is     6810.4 secs

     total energy              =   -5386.61039150 Ry
     estimated scf accuracy    <       0.07722106 Ry

     iteration #  3     ecut=    60.00 Ry     beta= 0.30
     Davidson diagonalization with overlap
     ethr =  3.68E-07,  avg # of iterations = 20.0

     negative rho (up, down):  3.528E-02 0.000E+00

     total cpu time spent up to now is     6822.7 secs

     total energy              =   -5386.61270960 Ry
     estimated scf accuracy    <       0.01655178 Ry

     iteration #  4     ecut=    60.00 Ry     beta= 0.30
     Davidson diagonalization with overlap
     ethr =  3.68E-07,  avg # of iterations =  5.0

     negative rho (up, down):  3.527E-02 0.000E+00

     total cpu time spent up to now is     6831.1 secs

     total energy              =   -5386.61294065 Ry
     estimated scf accuracy    <       0.01002830 Ry

     iteration #  5     ecut=    60.00 Ry     beta= 0.30
     Davidson diagonalization with overlap
     ethr =  3.68E-07,  avg # of iterations =  2.0

     negative rho (up, down):  3.528E-02 0.000E+00

     total cpu time spent up to now is     6838.1 secs

     total energy              =   -5386.61310781 Ry
     estimated scf accuracy    <       0.00209207 Ry

     iteration #  6     ecut=    60.00 Ry     beta= 0.30
     Davidson diagonalization with overlap
     ethr =  3.68E-07,  avg # of iterations =  1.0

     negative rho (up, down):  3.528E-02 0.000E+00

     total cpu time spent up to now is     6844.9 secs

     total energy              =   -5386.61313159 Ry
     estimated scf accuracy    <       0.00155051 Ry

     iteration #  7     ecut=    60.00 Ry     beta= 0.30
     Davidson diagonalization with overlap
     ethr =  2.76E-07,  avg # of iterations =  1.0

     negative rho (up, down):  3.528E-02 0.000E+00

     total cpu time spent up to now is     6851.8 secs

     total energy              =   -5386.61315616 Ry
     estimated scf accuracy    <       0.00104392 Ry

     iteration #  8     ecut=    60.00 Ry     beta= 0.30
     Davidson diagonalization with overlap
     ethr =  1.86E-07,  avg # of iterations =  1.0

     negative rho (up, down):  3.528E-02 0.000E+00

     total cpu time spent up to now is     6858.6 secs

     total energy              =   -5386.61317609 Ry
     estimated scf accuracy    <       0.00040795 Ry

     iteration #  9     ecut=    60.00 Ry     beta= 0.30
     Davidson diagonalization with overlap
     ethr =  7.27E-08,  avg # of iterations =  2.0

     negative rho (up, down):  3.528E-02 0.000E+00

     total cpu time spent up to now is     6866.1 secs

     total energy              =   -5386.61318436 Ry
     estimated scf accuracy    <       0.00035447 Ry

     iteration # 10     ecut=    60.00 Ry     beta= 0.30
     Davidson diagonalization with overlap
     ethr =  6.32E-08,  avg # of iterations =  1.0

     negative rho (up, down):  3.528E-02 0.000E+00

     total cpu time spent up to now is     6872.7 secs

     total energy              =   -5386.61319342 Ry
     estimated scf accuracy    <       0.00008155 Ry

     iteration # 11     ecut=    60.00 Ry     beta= 0.30
     Davidson diagonalization with overlap
     ethr =  1.45E-08,  avg # of iterations =  2.0

     negative rho (up, down):  3.528E-02 0.000E+00

     total cpu time spent up to now is     6879.8 secs

     total energy              =   -5386.61319266 Ry
     estimated scf accuracy    <       0.00018485 Ry

     iteration # 12     ecut=    60.00 Ry     beta= 0.30
     Davidson diagonalization with overlap
     ethr =  1.45E-08,  avg # of iterations =  1.0

     negative rho (up, down):  3.528E-02 0.000E+00

     total cpu time spent up to now is     6886.7 secs

     total energy              =   -5386.61319876 Ry
     estimated scf accuracy    <       0.00002595 Ry

     iteration # 13     ecut=    60.00 Ry     beta= 0.30
     Davidson diagonalization with overlap
     ethr =  4.63E-09,  avg # of iterations =  4.0

     negative rho (up, down):  3.528E-02 0.000E+00

     total cpu time spent up to now is     6894.9 secs

     total energy              =   -5386.61319872 Ry
     estimated scf accuracy    <       0.00006575 Ry

     iteration # 14     ecut=    60.00 Ry     beta= 0.30
     Davidson diagonalization with overlap
     ethr =  4.63E-09,  avg # of iterations =  2.0

     negative rho (up, down):  3.528E-02 0.000E+00

     total cpu time spent up to now is     6902.4 secs

     total energy              =   -5386.61320021 Ry
     estimated scf accuracy    <       0.00001091 Ry

     iteration # 15     ecut=    60.00 Ry     beta= 0.30
     Davidson diagonalization with overlap
     ethr =  1.94E-09,  avg # of iterations =  5.0

     negative rho (up, down):  3.528E-02 0.000E+00

     total cpu time spent up to now is     6912.4 secs

     total energy              =   -5386.61319828 Ry
     estimated scf accuracy    <       0.00016654 Ry

     iteration # 16     ecut=    60.00 Ry     beta= 0.30
     Davidson diagonalization with overlap
     ethr =  1.94E-09,  avg # of iterations =  5.0

     negative rho (up, down):  3.528E-02 0.000E+00

     total cpu time spent up to now is     6922.0 secs

     total energy              =   -5386.61320078 Ry
     estimated scf accuracy    <       0.00000814 Ry

     iteration # 17     ecut=    60.00 Ry     beta= 0.30
     Davidson diagonalization with overlap
     ethr =  1.45E-09,  avg # of iterations =  2.0

     negative rho (up, down):  3.528E-02 0.000E+00

     total cpu time spent up to now is     6929.9 secs

     total energy              =   -5386.61320087 Ry
     estimated scf accuracy    <       0.00000865 Ry

     iteration # 18     ecut=    60.00 Ry     beta= 0.30
     Davidson diagonalization with overlap
     ethr =  1.45E-09,  avg # of iterations =  1.0

     negative rho (up, down):  3.528E-02 0.000E+00

     total cpu time spent up to now is     6936.9 secs

     total energy              =   -5386.61320102 Ry
     estimated scf accuracy    <       0.00000536 Ry

     iteration # 19     ecut=    60.00 Ry     beta= 0.30
     Davidson diagonalization with overlap
     ethr =  9.56E-10,  avg # of iterations =  1.0

     negative rho (up, down):  3.528E-02 0.000E+00

     total cpu time spent up to now is     6944.1 secs

     total energy              =   -5386.61320106 Ry
     estimated scf accuracy    <       0.00000330 Ry

     iteration # 20     ecut=    60.00 Ry     beta= 0.30
     Davidson diagonalization with overlap
     ethr =  5.88E-10,  avg # of iterations =  1.0

     negative rho (up, down):  3.528E-02 0.000E+00

     total cpu time spent up to now is     6951.5 secs

     total energy              =   -5386.61320111 Ry
     estimated scf accuracy    <       0.00000376 Ry

     iteration # 21     ecut=    60.00 Ry     beta= 0.30
     Davidson diagonalization with overlap
     ethr =  5.88E-10,  avg # of iterations =  1.0

     negative rho (up, down):  3.528E-02 0.000E+00

     total cpu time spent up to now is     6959.0 secs

     total energy              =   -5386.61320116 Ry
     estimated scf accuracy    <       0.00000213 Ry

     iteration # 22     ecut=    60.00 Ry     beta= 0.30
     Davidson diagonalization with overlap
     ethr =  3.80E-10,  avg # of iterations =  2.0

     negative rho (up, down):  3.528E-02 0.000E+00

     total cpu time spent up to now is     6967.2 secs

     total energy              =   -5386.61320123 Ry
     estimated scf accuracy    <       0.00000090 Ry

     iteration # 23     ecut=    60.00 Ry     beta= 0.30
     Davidson diagonalization with overlap
     ethr =  1.61E-10,  avg # of iterations =  2.0

     negative rho (up, down):  3.528E-02 0.000E+00

     total cpu time spent up to now is     6975.2 secs

     total energy              =   -5386.61320122 Ry
     estimated scf accuracy    <       0.00000081 Ry

     iteration # 24     ecut=    60.00 Ry     beta= 0.30
     Davidson diagonalization with overlap
     ethr =  1.45E-10,  avg # of iterations =  2.0

     negative rho (up, down):  3.528E-02 0.000E+00

     total cpu time spent up to now is     6987.2 secs

     total energy              =   -5386.61320122 Ry
     estimated scf accuracy    <       0.00000157 Ry

     iteration # 25     ecut=    60.00 Ry     beta= 0.30
     Davidson diagonalization with overlap
     ethr =  1.45E-10,  avg # of iterations =  2.0

     negative rho (up, down):  3.528E-02 0.000E+00

     total cpu time spent up to now is     6994.8 secs

     total energy              =   -5386.61320121 Ry
     estimated scf accuracy    <       0.00000244 Ry

     iteration # 26     ecut=    60.00 Ry     beta= 0.30
     Davidson diagonalization with overlap
     ethr =  1.45E-10,  avg # of iterations =  1.0

     negative rho (up, down):  3.528E-02 0.000E+00

     total cpu time spent up to now is     7002.3 secs

     total energy              =   -5386.61320125 Ry
     estimated scf accuracy    <       0.00000167 Ry

     iteration # 27     ecut=    60.00 Ry     beta= 0.30
     Davidson diagonalization with overlap
     ethr =  1.45E-10,  avg # of iterations =  1.0

     negative rho (up, down):  3.528E-02 0.000E+00

     total cpu time spent up to now is     7009.9 secs

     total energy              =   -5386.61320127 Ry
     estimated scf accuracy    <       0.00000052 Ry

     iteration # 28     ecut=    60.00 Ry     beta= 0.30
     Davidson diagonalization with overlap
     ethr =  9.24E-11,  avg # of iterations =  1.0

     negative rho (up, down):  3.528E-02 0.000E+00

     total cpu time spent up to now is     7017.2 secs

     total energy              =   -5386.61320128 Ry
     estimated scf accuracy    <       0.00000034 Ry

     iteration # 29     ecut=    60.00 Ry     beta= 0.30
     Davidson diagonalization with overlap
     ethr =  6.13E-11,  avg # of iterations =  1.0

     negative rho (up, down):  3.528E-02 0.000E+00

     total cpu time spent up to now is     7024.6 secs

     total energy              =   -5386.61320128 Ry
     estimated scf accuracy    <       0.00000021 Ry

     iteration # 30     ecut=    60.00 Ry     beta= 0.30
     Davidson diagonalization with overlap
     ethr =  3.68E-11,  avg # of iterations =  1.0

     negative rho (up, down):  3.528E-02 0.000E+00

     total cpu time spent up to now is     7031.7 secs

     total energy              =   -5386.61320128 Ry
     estimated scf accuracy    <       0.00000029 Ry

     iteration # 31     ecut=    60.00 Ry     beta= 0.30
     Davidson diagonalization with overlap
     ethr =  3.68E-11,  avg # of iterations =  1.0

     negative rho (up, down):  3.528E-02 0.000E+00

     total cpu time spent up to now is     7039.0 secs

     total energy              =   -5386.61320129 Ry
     estimated scf accuracy    <       0.00000011 Ry

     iteration # 32     ecut=    60.00 Ry     beta= 0.30
     Davidson diagonalization with overlap
     ethr =  1.89E-11,  avg # of iterations =  1.0

     negative rho (up, down):  3.528E-02 0.000E+00

     total cpu time spent up to now is     7046.2 secs

     total energy              =   -5386.61320129 Ry
     estimated scf accuracy    <       0.00000007 Ry

     iteration # 33     ecut=    60.00 Ry     beta= 0.30
     Davidson diagonalization with overlap
     ethr =  1.23E-11,  avg # of iterations =  1.0

     negative rho (up, down):  3.528E-02 0.000E+00

     total cpu time spent up to now is     7053.1 secs

     total energy              =   -5386.61320129 Ry
     estimated scf accuracy    <       0.00000003 Ry

     iteration # 34     ecut=    60.00 Ry     beta= 0.30
     Davidson diagonalization with overlap
     ethr =  4.93E-12,  avg # of iterations =  2.0

     negative rho (up, down):  3.528E-02 0.000E+00

     total cpu time spent up to now is     7061.2 secs

     total energy              =   -5386.61320129 Ry
     estimated scf accuracy    <       0.00000008 Ry

     iteration # 35     ecut=    60.00 Ry     beta= 0.30
     Davidson diagonalization with overlap
     ethr =  4.93E-12,  avg # of iterations =  2.0

     negative rho (up, down):  3.528E-02 0.000E+00

     total cpu time spent up to now is     7068.8 secs

     total energy              =   -5386.61320129 Ry
     estimated scf accuracy    <       0.00000011 Ry

     iteration # 36     ecut=    60.00 Ry     beta= 0.30
     Davidson diagonalization with overlap
     ethr =  4.93E-12,  avg # of iterations =  3.0

     negative rho (up, down):  3.528E-02 0.000E+00

     total cpu time spent up to now is     7076.8 secs

     total energy              =   -5386.61320129 Ry
     estimated scf accuracy    <       0.00000026 Ry

     iteration # 37     ecut=    60.00 Ry     beta= 0.30
     Davidson diagonalization with overlap
     ethr =  4.93E-12,  avg # of iterations =  2.0

     negative rho (up, down):  3.528E-02 0.000E+00

     total cpu time spent up to now is     7084.4 secs

     total energy              =   -5386.61320129 Ry
     estimated scf accuracy    <       0.00000003 Ry

     iteration # 38     ecut=    60.00 Ry     beta= 0.30
     Davidson diagonalization with overlap
     ethr =  4.64E-12,  avg # of iterations =  1.0

     negative rho (up, down):  3.528E-02 0.000E+00

     total cpu time spent up to now is     7091.8 secs

     total energy              =   -5386.61320129 Ry
     estimated scf accuracy    <       0.00000002 Ry

     iteration # 39     ecut=    60.00 Ry     beta= 0.30
     Davidson diagonalization with overlap
     ethr =  4.37E-12,  avg # of iterations =  1.0

     negative rho (up, down):  3.528E-02 0.000E+00

     total cpu time spent up to now is     7098.9 secs

     total energy              =   -5386.61320129 Ry
     estimated scf accuracy    <       0.00000002 Ry

     iteration # 40     ecut=    60.00 Ry     beta= 0.30
     Davidson diagonalization with overlap
     ethr =  2.91E-12,  avg # of iterations =  1.0

     negative rho (up, down):  3.528E-02 0.000E+00

     total cpu time spent up to now is     7106.2 secs

     total energy              =   -5386.61320129 Ry
     estimated scf accuracy    <       0.00000002 Ry

     iteration # 41     ecut=    60.00 Ry     beta= 0.30
     Davidson diagonalization with overlap
     ethr =  2.91E-12,  avg # of iterations =  1.0

     negative rho (up, down):  3.528E-02 0.000E+00

     total cpu time spent up to now is     7114.0 secs

     total energy              =   -5386.61320129 Ry
     estimated scf accuracy    <          9.2E-09 Ry

     iteration # 42     ecut=    60.00 Ry     beta= 0.30
     Davidson diagonalization with overlap
     ethr =  1.63E-12,  avg # of iterations =  2.0

     negative rho (up, down):  3.528E-02 0.000E+00

     total cpu time spent up to now is     7121.6 secs

     total energy              =   -5386.61320129 Ry
     estimated scf accuracy    <          9.1E-09 Ry

     iteration # 43     ecut=    60.00 Ry     beta= 0.30
     Davidson diagonalization with overlap
     ethr =  1.62E-12,  avg # of iterations =  1.0

     negative rho (up, down):  3.528E-02 0.000E+00

     total cpu time spent up to now is     7128.8 secs

     total energy              =   -5386.61320129 Ry
     estimated scf accuracy    <          2.0E-09 Ry

     iteration # 44     ecut=    60.00 Ry     beta= 0.30
     Davidson diagonalization with overlap
     ethr =  3.65E-13,  avg # of iterations =  2.0

     negative rho (up, down):  3.528E-02 0.000E+00

     total cpu time spent up to now is     7136.9 secs

     total energy              =   -5386.61320129 Ry
     estimated scf accuracy    <          5.1E-09 Ry

     iteration # 45     ecut=    60.00 Ry     beta= 0.30
     Davidson diagonalization with overlap
     ethr =  3.65E-13,  avg # of iterations =  2.0

     negative rho (up, down):  3.528E-02 0.000E+00

     total cpu time spent up to now is     7144.6 secs

     total energy              =   -5386.61320129 Ry
     estimated scf accuracy    <          7.4E-09 Ry

     iteration # 46     ecut=    60.00 Ry     beta= 0.30
     Davidson diagonalization with overlap
     ethr =  3.65E-13,  avg # of iterations =  2.0

     negative rho (up, down):  3.528E-02 0.000E+00

     total cpu time spent up to now is     7152.5 secs

     total energy              =   -5386.61320130 Ry
     estimated scf accuracy    <       0.00000001 Ry

     iteration # 47     ecut=    60.00 Ry     beta= 0.30
     Davidson diagonalization with overlap
     ethr =  3.65E-13,  avg # of iterations =  2.0

     negative rho (up, down):  3.528E-02 0.000E+00

     total cpu time spent up to now is     7161.8 secs

     total energy              =   -5386.61320129 Ry
     estimated scf accuracy    <          2.8E-09 Ry

     iteration # 48     ecut=    60.00 Ry     beta= 0.30
     Davidson diagonalization with overlap
     ethr =  3.65E-13,  avg # of iterations =  1.0

     negative rho (up, down):  3.528E-02 0.000E+00

     total cpu time spent up to now is     7169.2 secs

     total energy              =   -5386.61320129 Ry
     estimated scf accuracy    <          2.5E-09 Ry

     iteration # 49     ecut=    60.00 Ry     beta= 0.30
     Davidson diagonalization with overlap
     ethr =  3.65E-13,  avg # of iterations =  1.0

     negative rho (up, down):  3.528E-02 0.000E+00

     total cpu time spent up to now is     7176.5 secs

     total energy              =   -5386.61320129 Ry
     estimated scf accuracy    <          2.0E-09 Ry

     iteration # 50     ecut=    60.00 Ry     beta= 0.30
     Davidson diagonalization with overlap
     ethr =  3.60E-13,  avg # of iterations =  1.0

     negative rho (up, down):  3.528E-02 0.000E+00

     total cpu time spent up to now is     7183.8 secs

     total energy              =   -5386.61320130 Ry
     estimated scf accuracy    <          1.7E-09 Ry

     iteration # 51     ecut=    60.00 Ry     beta= 0.30
     Davidson diagonalization with overlap
     ethr =  3.11E-13,  avg # of iterations =  1.0

     negative rho (up, down):  3.528E-02 0.000E+00

     total cpu time spent up to now is     7190.9 secs

     total energy              =   -5386.61320130 Ry
     estimated scf accuracy    <          1.1E-09 Ry

     iteration # 52     ecut=    60.00 Ry     beta= 0.30
     Davidson diagonalization with overlap
     ethr =  1.90E-13,  avg # of iterations =  1.0

     negative rho (up, down):  3.528E-02 0.000E+00

     total cpu time spent up to now is     7198.1 secs

     End of self-consistent calculation

          k = 0.0000 0.0000 0.0000 ( 46961 PWs)   bands (ev):

   -69.5663 -69.5329 -69.5052 -69.4935 -69.4764 -69.4592 -69.4386 -69.4299
   -69.4296 -69.4113 -69.2296 -62.0522 -62.0357 -62.0240 -61.9936 -61.9827
   -61.9037 -61.9031 -61.8148 -61.7742 -61.7336 -54.3339 -54.2826 -54.2673
   -54.1317 -54.0146 -53.9765 -53.9627 -53.9445 -53.8702 -53.8039 -53.7717
   -41.0147 -40.9837 -40.9725 -40.9566 -40.9437 -40.9380 -40.9042 -40.8994
   -40.8812 -40.8806 -40.8790 -40.8701 -40.8618 -40.8571 -40.8400 -40.8294
   -40.8251 -40.8023 -40.7908 -40.7885 -40.7851 -40.7699 -40.7696 -40.7674
   -40.7617 -40.7514 -40.7270 -40.7228 -40.7068 -40.6862 -40.6637 -40.5924
   -40.4539 -36.0323 -35.9983 -35.9840 -35.9715 -35.9434 -35.9345 -35.9179
   -35.8876 -35.8838 -35.8657 -35.8516 -35.8374 -35.8277 -35.8169 -35.8075
   -35.7983 -35.7886 -35.7835 -35.7830 -35.7561 -35.7428 -35.7247 -35.6959
   -35.6806 -35.6732 -35.6386 -35.6166 -35.5890 -35.5409 -35.5021 -30.8009
   -30.7133 -30.6773 -30.5773 -30.5564 -30.5427 -30.5276 -30.5259 -30.5175
   -30.5139 -30.4823 -30.4493 -30.4043 -30.4030 -30.3988 -30.3795 -30.3575
   -30.3463 -30.3346 -30.3257 -30.3092 -30.2722 -30.2682 -30.2172 -30.1972
   -30.1625 -30.1596 -30.1086 -30.1041 -30.0947 -30.0490 -30.0310 -29.9971
   -21.6647 -16.3169 -10.7244  -9.6637  -9.2494  -9.1760  -9.0651  -8.9253
    -8.5912  -8.3821  -8.3453  -8.2846  -8.2286  -8.1294  -8.0784  -7.9437
    -7.9285  -7.7771  -7.6998  -7.6391  -7.5462  -7.4946  -7.4550  -7.4319
    -7.4108  -7.3710  -7.2908  -7.2830  -7.1397  -7.0385  -6.8590  -6.8005
    -6.7302  -6.5975  -6.4771  -4.2981  -4.2560  -4.1031  -3.9426  -3.8701
    -3.8059  -3.7092  -3.2089  -2.9609  -2.8425  -2.7315  -2.6705  -2.6252
    -2.5846  -2.4673  -2.4561  -2.3914  -2.3353  -2.3346  -2.1743  -2.0748
    -2.0439  -1.9511  -1.8169  -1.8027  -1.7702  -1.7331  -1.6301  -1.5465
    -1.4785  -1.4466  -1.4277  -1.4021  -1.3773  -1.3457  -1.3296  -1.3103
    -1.2992  -1.2861  -1.2702  -1.2513  -1.2221  -1.2111  -1.1774  -1.0787
    -1.0542  -1.0515  -1.0218  -0.9799  -0.9426  -0.8877  -0.8577  -0.8044
    -0.7822  -0.7449  -0.7181  -0.7009  -0.6708  -0.6412  -0.6171  -0.6097
    -0.5898  -0.5837  -0.5710  -0.5476  -0.5401  -0.5138  -0.4470  -0.3546
    -0.2751  -0.2320  -0.1866  -0.1485  -0.1244  -0.0700  -0.0204   0.0508
     0.0535   0.1038   0.1165   0.1506   0.2193   0.2762   0.3224   0.4734
     0.4943   0.5953   0.6186   0.7233   0.7797   0.8885   0.9539   1.0159
     1.0869   1.0986   1.2161   1.2604   1.3441   1.4317   1.4640   1.4855
     1.5250   1.7489   1.7692   1.7986   1.8484   1.9144   1.9762   2.2053
     2.2475   2.3297   2.6631   2.6738   2.7681   2.8402   2.9553   2.9850
     2.9987   3.0619   3.1156   3.1244   3.1882   3.2043   3.2240   3.2701
     3.2761   3.3156   3.3291   3.3601   3.3893   3.4077   3.4541   3.4754
     3.5022   3.5134   3.5703   3.5866   3.6702   3.6920   3.7292   3.7539
     3.7801   3.8530   3.8594   3.9006   3.9365   3.9721   3.9967   4.0193
     4.0734   4.0871   4.1146   4.1505   4.1754   4.2236   4.2378   4.2680
     4.2864   4.3548   4.3707   4.4287   4.4433   4.4670   4.5521   4.5853
     4.5925   4.6363   4.6690   4.6939   4.7294   4.8197   4.8582   4.8775
     4.9117

     the Fermi energy is     3.0134 ev

!    total energy              =   -5386.61320129 Ry
     estimated scf accuracy    <          7.9E-10 Ry
     smearing contrib. (-TS)   =      -0.03634288 Ry
     internal energy E=F+TS    =   -5386.57685841 Ry

     The total energy is F=E-TS. E is the sum of the following terms:
     one-electron contribution =  -55956.46396172 Ry
     hartree contribution      =   28011.50891645 Ry
     xc contribution           =    -807.48526191 Ry
     ewald contribution        =   23588.69652784 Ry
     one-center paw contrib.   =    -222.83307906 Ry

     convergence has been achieved in  52 iterations

     negative rho (up, down):  3.528E-02 0.000E+00

     Forces acting on atoms (cartesian axes, Ry/au):

     atom    1 type  1   force =    -0.00069978    0.00104797   -0.00409638
     atom    2 type  1   force =    -0.00374356   -0.00620526    0.00347382
     atom    3 type  1   force =    -0.01139664    0.03177141   -0.00328803
     atom    4 type  1   force =    -0.00062756   -0.01512537    0.02941154
     atom    5 type  1   force =    -0.00423369    0.01129287    0.00087930
     atom    6 type  1   force =     0.00793319   -0.00113342    0.02758052
     atom    7 type  1   force =    -0.00689918   -0.01820803   -0.03185481
     atom    8 type  1   force =     0.00867477    0.02250287   -0.01330439
     atom    9 type  1   force =    -0.01714212   -0.00132644   -0.03458744
     atom   10 type  1   force =    -0.00099405    0.00024691   -0.00281230
     atom   11 type  1   force =    -0.00024856   -0.00169237   -0.00342382
     atom   12 type  2   force =     0.00031410    0.00191533    0.00584866
     atom   13 type  2   force =    -0.00160768    0.00097188    0.00079627
     atom   14 type  2   force =     0.02272340   -0.00647453    0.01972663
     atom   15 type  2   force =    -0.01257201    0.00039927    0.11292654
     atom   16 type  2   force =     0.00480083    0.00074152    0.09575619
     atom   17 type  2   force =    -0.04951228   -0.02081560   -0.02018109
     atom   18 type  2   force =     0.00251367    0.02700580   -0.03102188
     atom   19 type  2   force =    -0.01483462    0.02121684   -0.03375589
     atom   20 type  2   force =    -0.00088028   -0.01143198    0.00168286
     atom   21 type  2   force =     0.00571366    0.01576541   -0.00596388
     atom   22 type  3   force =    -0.00127360   -0.00258449   -0.00025688
     atom   23 type  3   force =    -0.02261261   -0.01085496    0.00236128
     atom   24 type  3   force =     0.01906715    0.02057451   -0.01752454
     atom   25 type  3   force =     0.01544540   -0.01398864    0.06378584
     atom   26 type  3   force =    -0.00323793    0.01207020    0.12302169
     atom   27 type  3   force =     0.02975525   -0.00621403    0.00021509
     atom   28 type  3   force =    -0.00665367    0.00076166    0.04077451
     atom   29 type  3   force =     0.00092522   -0.00070306    0.00326641
     atom   30 type  3   force =    -0.00242872   -0.00223900    0.00224693
     atom   31 type  3   force =     0.00539990   -0.00182969   -0.01260017
     atom   32 type  3   force =    -0.01119198   -0.00105563   -0.01045517
     atom   33 type  4   force =    -0.00008609   -0.00799593   -0.03545496
     atom   34 type  4   force =     0.00873610    0.01241827   -0.00691689
     atom   35 type  4   force =    -0.00188517   -0.01705212   -0.02263747
     atom   36 type  4   force =     0.00071833    0.01052476   -0.03500296
     atom   37 type  4   force =     0.00174793    0.00064213    0.03268472
     atom   38 type  4   force =     0.00909185   -0.01246487    0.02354230
     atom   39 type  4   force =     0.01131680   -0.00532586    0.02344843
     atom   40 type  4   force =     0.00670256   -0.00947090    0.00695716
     atom   41 type  4   force =     0.00106759    0.00157561   -0.00116098
     atom   42 type  4   force =     0.00006607   -0.00216453   -0.00115729
     atom   43 type  4   force =     0.00130753   -0.00003230   -0.00196850
     atom   44 type  4   force =     0.00088666   -0.00086728   -0.00036827
     atom   45 type  4   force =     0.00761328    0.00717062   -0.04161477
     atom   46 type  4   force =     0.00426215   -0.00064462   -0.04388607
     atom   47 type  4   force =    -0.00562556    0.00048989   -0.02933800
     atom   48 type  4   force =    -0.01204753   -0.01041557   -0.02366187
     atom   49 type  4   force =    -0.00188222    0.00087933    0.00167922
     atom   50 type  4   force =     0.00101855    0.00163476    0.00210846
     atom   51 type  4   force =     0.00119340    0.00044085    0.00008308
     atom   52 type  4   force =     0.00194889   -0.00204715   -0.00128793
     atom   53 type  4   force =    -0.00202950    0.00096839   -0.02325538
     atom   54 type  4   force =    -0.00586588    0.00615104   -0.03523028
     atom   55 type  4   force =    -0.00124397    0.00404995   -0.03116633
     atom   56 type  4   force =    -0.00129269   -0.00909281   -0.02602885
     atom   57 type  4   force =    -0.01623091    0.00858529   -0.02695585
     atom   58 type  4   force =    -0.00883793   -0.00572970   -0.03887137
     atom   59 type  4   force =     0.01449086    0.01214880   -0.03018171
     atom   60 type  4   force =     0.00223072   -0.01019667   -0.02215316
     atom   61 type  4   force =     0.01127661   -0.00628546    0.01948264
     atom   62 type  4   force =     0.00723695   -0.00575192    0.02919399
     atom   63 type  4   force =     0.01046186   -0.00492211    0.00203705
     atom   64 type  4   force =     0.00271951   -0.00699339    0.03010965
     atom   65 type  4   force =     0.00021091    0.00093912   -0.00117322
     atom   66 type  5   force =    -0.00053061    0.00064297   -0.00030313
     atom   67 type  5   force =     0.00050599    0.00105201   -0.00064090
     atom   68 type  6   force =     0.00027093    0.00073745    0.00046202

     Total force =     0.013076     Total SCF correction =     0.000033
     Energy error            =      3.3E-04 Ry
     Gradient error          =      5.8E-03 Ry/Bohr

     number of scf cycles    =  18
     number of bfgs steps    =  17

     energy             old  =   -5386.6128691419 Ry
     energy             new  =   -5386.6132012921 Ry

     CASE: energy            _new < energy            _old

     new trust radius        =       0.0202214974 bohr
     new conv_thr            =       0.0000000010 Ry


ATOMIC_POSITIONS (angstrom)
Ti               0.0518914498       -0.0008305142       16.1671034668
Ti               0.0291331002        8.3621570543       11.5803477355    0   0   0
Ti               2.0975368417        4.1651924041       13.6995846818    0   0   0
Ti               8.3795041056        2.0957563981        9.4724378689    0   0   0
Ti               8.3750099733        6.2687152092        9.4933225157    0   0   0
Ti               4.2170671874        6.2898439467        9.4911460380    0   0   0
Ti               8.3706959315        2.0992468883       13.7196199333    0   0   0
Ti               8.3814371399        6.2587905921       13.6914936631    0   0   0
Ti               4.2074509867        6.2621252961       13.6953624844    0   0   0
Ti               2.1554861546        6.2221566591       15.8118403050
Ti               6.3215992391        6.2615515834       15.7483709266
V                8.4379619711        4.0944149446       15.6947095177
V                4.2810529402        4.0608909062       15.6488258115
V                4.1453105473        4.2119457891       11.5975026988    0   0   0
V                2.1879867013        0.0520231596        9.5054883674    0   0   0
V                2.1522427348        4.1319303501        9.4904675789    0   0   0
V                2.0919720210       -0.0034525136       13.6809547049    0   0   0
V                6.2957223951        4.1813414611       13.7896152224    0   0   0
V                4.2104512702        2.0785028673       13.6089365586    0   0   0
V                2.1048639148        6.2714192178       11.5723879270    0   0   0
V                6.3158808164        6.1438819511       11.5700667150    0   0   0
Cr               4.2864868691       -0.0220387834       15.5419144319
Cr               0.1179128009        4.1786640750       11.5195623927    0   0   0
Cr               4.1681598842        8.2577799257       11.6615352591    0   0   0
Cr               6.1999882077        0.1106418811        9.6948923906    0   0   0
Cr               6.2007452456        4.0563627707        9.3394942948    0   0   0
Cr               6.3039559766        8.3200573949       13.5345114413    0   0   0
Cr               4.2149984025        2.0754774019        9.7444374941    0   0   0
Cr               2.3011250611        2.0124266101       15.5619829816
Cr               6.2649522489        1.9807352687       15.5458941099
Cr               2.0054620409        2.1149661174       11.6192682974    0   0   0
Cr               6.3992485267        2.2488278238       11.6549867199    0   0   0
C                8.3671464633        0.0123762133        9.4921945368    0   0   0
C                8.3685510870        4.1683341954        9.4949958325    0   0   0
C                4.2233794382        0.0660683478        9.5137772640    0   0   0
C                4.2071394793        4.1170355077        9.4900603783    0   0   0
C                8.3753352139       -0.0047460034       13.6879749419    0   0   0
C                8.3555577743        4.1752016178       13.6998947017    0   0   0
C                4.2131653834        0.0054873094       13.6688163572    0   0   0
C                4.2220181648        4.1373219388       13.6924183861    0   0   0
C                2.1376061236        0.1356535312       15.8630670454
C                2.0739139050        4.1088055963       15.9590437437
C                6.1820442799        0.1007517281       15.8650696748
C                6.2195113120        4.1826887168       15.9052388866
C                2.1521326937        0.0175132539       11.5903255372    0   0   0
C                2.1078429860        4.1683083653       11.5671868517    0   0   0
C                6.2417937451        0.0188099573       11.6002801854    0   0   0
C                6.3283074126        4.1569384024       11.5682471185    0   0   0
C                8.1290456361        2.1898288635       15.8465743383
C                8.3486864636        6.3049204378       15.8747251851
C                4.1668153068        2.0774004545       15.7701196502
C                4.1996935549        6.4367733576       15.8867661499
C                0.0147673152        2.1438801594       11.5939557114    0   0   0
C                0.0200697416        6.2277703895       11.5821679336    0   0   0
C                4.2182428542        2.0594943016       11.6100232202    0   0   0
C                4.2117703951        6.2583221129       11.5919858628    0   0   0
C                2.1713130363        2.0860319016        9.4919958919    0   0   0
C                2.1164500536        6.2753611976        9.5156635851    0   0   0
C                6.2203151227        2.0809934926        9.4961719556    0   0   0
C                6.2861737462        6.2618311600        9.5257047400    0   0   0
C                2.1349207790        2.0551228178       13.6855329086    0   0   0
C                2.1043015435        6.2915359703       13.6724452320    0   0   0
C                6.2612712230        2.0678980813       13.6766563617    0   0   0
C                6.2981398968        6.2588382292       13.6653030130    0   0   0
C                2.1659662606        6.0863760035       18.0066861521
O                2.1966713039        5.9409845925       19.1415331507
O                8.3540391452        0.0926259519       18.0069787498
H                7.6643034275        0.4648478425       18.5746479934



     Writing config-only to output data dir ./tmp/hec3_CrTiV_f100_COOH_ads.save/ :
     XML data file
     NEW-OLD atomic charge density approx. for the potential

     Check: negative core charge=   -0.000005

     negative rho (up, down):  3.503E-02 0.000E+00

     total cpu time spent up to now is     7211.0 secs

     Self-consistent Calculation

     iteration #  1     ecut=    60.00 Ry     beta= 0.30
     Davidson diagonalization with overlap
     ethr =  1.00E-06,  avg # of iterations =  5.0

     negative rho (up, down):  3.503E-02 0.000E+00

     total cpu time spent up to now is     7221.2 secs

     total energy              =   -5386.61274975 Ry
     estimated scf accuracy    <       0.00177945 Ry

     iteration #  2     ecut=    60.00 Ry     beta= 0.30
     Davidson diagonalization with overlap
     ethr =  3.17E-07,  avg # of iterations = 20.0

     negative rho (up, down):  3.503E-02 0.000E+00

     total cpu time spent up to now is     7237.5 secs

     total energy              =   -5386.61091284 Ry
     estimated scf accuracy    <       0.07005961 Ry

     iteration #  3     ecut=    60.00 Ry     beta= 0.30
     Davidson diagonalization with overlap
     ethr =  3.17E-07,  avg # of iterations = 18.0

     negative rho (up, down):  3.503E-02 0.000E+00

     total cpu time spent up to now is     7252.7 secs

     total energy              =   -5386.61288231 Ry
     estimated scf accuracy    <       0.01973370 Ry

     iteration #  4     ecut=    60.00 Ry     beta= 0.30
     Davidson diagonalization with overlap
     ethr =  3.17E-07,  avg # of iterations =  5.0

     negative rho (up, down):  3.503E-02 0.000E+00

     total cpu time spent up to now is     7262.0 secs

     total energy              =   -5386.61317997 Ry
     estimated scf accuracy    <       0.00971441 Ry

     iteration #  5     ecut=    60.00 Ry     beta= 0.30
     Davidson diagonalization with overlap
     ethr =  3.17E-07,  avg # of iterations =  2.0

     negative rho (up, down):  3.504E-02 0.000E+00

     total cpu time spent up to now is     7269.9 secs

     total energy              =   -5386.61334134 Ry
     estimated scf accuracy    <       0.00255815 Ry

     iteration #  6     ecut=    60.00 Ry     beta= 0.30
     Davidson diagonalization with overlap
     ethr =  3.17E-07,  avg # of iterations =  1.0

     negative rho (up, down):  3.503E-02 0.000E+00

     total cpu time spent up to now is     7276.9 secs

     total energy              =   -5386.61338742 Ry
     estimated scf accuracy    <       0.00125127 Ry

     iteration #  7     ecut=    60.00 Ry     beta= 0.30
     Davidson diagonalization with overlap
     ethr =  2.23E-07,  avg # of iterations =  1.0

     negative rho (up, down):  3.504E-02 0.000E+00

     total cpu time spent up to now is     7284.0 secs

     total energy              =   -5386.61341465 Ry
     estimated scf accuracy    <       0.00041399 Ry

     iteration #  8     ecut=    60.00 Ry     beta= 0.30
     Davidson diagonalization with overlap
     ethr =  7.38E-08,  avg # of iterations =  2.0

     negative rho (up, down):  3.504E-02 0.000E+00

     total cpu time spent up to now is     7292.7 secs

     total energy              =   -5386.61342063 Ry
     estimated scf accuracy    <       0.00038880 Ry

     iteration #  9     ecut=    60.00 Ry     beta= 0.30
     Davidson diagonalization with overlap
     ethr =  6.93E-08,  avg # of iterations =  1.0

     negative rho (up, down):  3.504E-02 0.000E+00

     total cpu time spent up to now is     7299.9 secs

     total energy              =   -5386.61342741 Ry
     estimated scf accuracy    <       0.00029050 Ry

     iteration # 10     ecut=    60.00 Ry     beta= 0.30
     Davidson diagonalization with overlap
     ethr =  5.18E-08,  avg # of iterations =  1.0

     negative rho (up, down):  3.504E-02 0.000E+00

     total cpu time spent up to now is     7307.2 secs

     total energy              =   -5386.61343544 Ry
     estimated scf accuracy    <       0.00005198 Ry

     iteration # 11     ecut=    60.00 Ry     beta= 0.30
     Davidson diagonalization with overlap
     ethr =  9.27E-09,  avg # of iterations =  5.0

     negative rho (up, down):  3.504E-02 0.000E+00

     total cpu time spent up to now is     7316.8 secs

     total energy              =   -5386.61343419 Ry
     estimated scf accuracy    <       0.00016004 Ry

     iteration # 12     ecut=    60.00 Ry     beta= 0.30
     Davidson diagonalization with overlap
     ethr =  9.27E-09,  avg # of iterations =  2.0

     negative rho (up, down):  3.504E-02 0.000E+00

     total cpu time spent up to now is     7324.7 secs

     total energy              =   -5386.61343882 Ry
     estimated scf accuracy    <       0.00002974 Ry

     iteration # 13     ecut=    60.00 Ry     beta= 0.30
     Davidson diagonalization with overlap
     ethr =  5.30E-09,  avg # of iterations =  5.0

     negative rho (up, down):  3.504E-02 0.000E+00

     total cpu time spent up to now is     7334.0 secs

     total energy              =   -5386.61343851 Ry
     estimated scf accuracy    <       0.00008715 Ry

     iteration # 14     ecut=    60.00 Ry     beta= 0.30
     Davidson diagonalization with overlap
     ethr =  5.30E-09,  avg # of iterations =  2.0

     negative rho (up, down):  3.504E-02 0.000E+00

     total cpu time spent up to now is     7342.1 secs

     total energy              =   -5386.61344070 Ry
     estimated scf accuracy    <       0.00000832 Ry

     iteration # 15     ecut=    60.00 Ry     beta= 0.30
     Davidson diagonalization with overlap
     ethr =  1.48E-09,  avg # of iterations =  2.0

     negative rho (up, down):  3.504E-02 0.000E+00

     total cpu time spent up to now is     7350.3 secs

     total energy              =   -5386.61344050 Ry
     estimated scf accuracy    <       0.00001635 Ry

     iteration # 16     ecut=    60.00 Ry     beta= 0.30
     Davidson diagonalization with overlap
     ethr =  1.48E-09,  avg # of iterations =  2.0

     negative rho (up, down):  3.504E-02 0.000E+00

     total cpu time spent up to now is     7358.3 secs

     total energy              =   -5386.61344073 Ry
     estimated scf accuracy    <       0.00002341 Ry

     iteration # 17     ecut=    60.00 Ry     beta= 0.30
     Davidson diagonalization with overlap
     ethr =  1.48E-09,  avg # of iterations =  2.0

     negative rho (up, down):  3.504E-02 0.000E+00

     total cpu time spent up to now is     7366.2 secs

     total energy              =   -5386.61344113 Ry
     estimated scf accuracy    <       0.00000347 Ry

     iteration # 18     ecut=    60.00 Ry     beta= 0.30
     Davidson diagonalization with overlap
     ethr =  6.18E-10,  avg # of iterations =  2.0

     negative rho (up, down):  3.504E-02 0.000E+00

     total cpu time spent up to now is     7374.3 secs

     total energy              =   -5386.61344119 Ry
     estimated scf accuracy    <       0.00000172 Ry

     iteration # 19     ecut=    60.00 Ry     beta= 0.30
     Davidson diagonalization with overlap
     ethr =  3.07E-10,  avg # of iterations =  2.0

     negative rho (up, down):  3.504E-02 0.000E+00

     total cpu time spent up to now is     7382.3 secs

     total energy              =   -5386.61344113 Ry
     estimated scf accuracy    <       0.00000456 Ry

     iteration # 20     ecut=    60.00 Ry     beta= 0.30
     Davidson diagonalization with overlap
     ethr =  3.07E-10,  avg # of iterations =  2.0

     negative rho (up, down):  3.504E-02 0.000E+00

     total cpu time spent up to now is     7389.9 secs

     total energy              =   -5386.61344122 Ry
     estimated scf accuracy    <       0.00000269 Ry

     iteration # 21     ecut=    60.00 Ry     beta= 0.30
     Davidson diagonalization with overlap
     ethr =  3.07E-10,  avg # of iterations =  2.0

     negative rho (up, down):  3.504E-02 0.000E+00

     total cpu time spent up to now is     7397.8 secs

     total energy              =   -5386.61344127 Ry
     estimated scf accuracy    <       0.00000145 Ry

     iteration # 22     ecut=    60.00 Ry     beta= 0.30
     Davidson diagonalization with overlap
     ethr =  2.58E-10,  avg # of iterations =  1.0

     negative rho (up, down):  3.504E-02 0.000E+00

     total cpu time spent up to now is     7405.4 secs

     total energy              =   -5386.61344133 Ry
     estimated scf accuracy    <       0.00000071 Ry

     iteration # 23     ecut=    60.00 Ry     beta= 0.30
     Davidson diagonalization with overlap
     ethr =  1.26E-10,  avg # of iterations =  1.0

     negative rho (up, down):  3.504E-02 0.000E+00

     total cpu time spent up to now is     7412.6 secs

     total energy              =   -5386.61344132 Ry
     estimated scf accuracy    <       0.00000032 Ry

     iteration # 24     ecut=    60.00 Ry     beta= 0.30
     Davidson diagonalization with overlap
     ethr =  5.62E-11,  avg # of iterations =  2.0

     negative rho (up, down):  3.504E-02 0.000E+00

     total cpu time spent up to now is     7420.9 secs

     total energy              =   -5386.61344130 Ry
     estimated scf accuracy    <       0.00000166 Ry

     iteration # 25     ecut=    60.00 Ry     beta= 0.30
     Davidson diagonalization with overlap
     ethr =  5.62E-11,  avg # of iterations =  2.0

     negative rho (up, down):  3.504E-02 0.000E+00

     total cpu time spent up to now is     7428.9 secs

     total energy              =   -5386.61344133 Ry
     estimated scf accuracy    <       0.00000089 Ry

     iteration # 26     ecut=    60.00 Ry     beta= 0.30
     Davidson diagonalization with overlap
     ethr =  5.62E-11,  avg # of iterations =  2.0

     negative rho (up, down):  3.504E-02 0.000E+00

     total cpu time spent up to now is     7436.4 secs

     total energy              =   -5386.61344133 Ry
     estimated scf accuracy    <       0.00000141 Ry

     iteration # 27     ecut=    60.00 Ry     beta= 0.30
     Davidson diagonalization with overlap
     ethr =  5.62E-11,  avg # of iterations =  1.0

     negative rho (up, down):  3.504E-02 0.000E+00

     total cpu time spent up to now is     7443.9 secs

     total energy              =   -5386.61344135 Ry
     estimated scf accuracy    <       0.00000018 Ry

     iteration # 28     ecut=    60.00 Ry     beta= 0.30
     Davidson diagonalization with overlap
     ethr =  3.28E-11,  avg # of iterations =  1.0

     negative rho (up, down):  3.504E-02 0.000E+00

     total cpu time spent up to now is     7451.4 secs

     total energy              =   -5386.61344136 Ry
     estimated scf accuracy    <       0.00000004 Ry

     iteration # 29     ecut=    60.00 Ry     beta= 0.30
     Davidson diagonalization with overlap
     ethr =  7.53E-12,  avg # of iterations =  3.0

     negative rho (up, down):  3.504E-02 0.000E+00

     total cpu time spent up to now is     7459.8 secs

     total energy              =   -5386.61344136 Ry
     estimated scf accuracy    <       0.00000013 Ry

     iteration # 30     ecut=    60.00 Ry     beta= 0.30
     Davidson diagonalization with overlap
     ethr =  7.53E-12,  avg # of iterations =  2.0

     negative rho (up, down):  3.504E-02 0.000E+00

     total cpu time spent up to now is     7467.9 secs

     total energy              =   -5386.61344136 Ry
     estimated scf accuracy    <       0.00000009 Ry

     iteration # 31     ecut=    60.00 Ry     beta= 0.30
     Davidson diagonalization with overlap
     ethr =  7.53E-12,  avg # of iterations =  1.0

     negative rho (up, down):  3.504E-02 0.000E+00

     total cpu time spent up to now is     7475.2 secs

     total energy              =   -5386.61344136 Ry
     estimated scf accuracy    <       0.00000003 Ry

     iteration # 32     ecut=    60.00 Ry     beta= 0.30
     Davidson diagonalization with overlap
     ethr =  5.41E-12,  avg # of iterations =  2.0

     negative rho (up, down):  3.504E-02 0.000E+00

     total cpu time spent up to now is     7483.3 secs

     total energy              =   -5386.61344136 Ry
     estimated scf accuracy    <       0.00000002 Ry

     iteration # 33     ecut=    60.00 Ry     beta= 0.30
     Davidson diagonalization with overlap
     ethr =  4.23E-12,  avg # of iterations =  1.0

     negative rho (up, down):  3.504E-02 0.000E+00

     total cpu time spent up to now is     7490.5 secs

     total energy              =   -5386.61344136 Ry
     estimated scf accuracy    <          5.0E-09 Ry

     iteration # 34     ecut=    60.00 Ry     beta= 0.30
     Davidson diagonalization with overlap
     ethr =  9.00E-13,  avg # of iterations =  6.0

     negative rho (up, down):  3.504E-02 0.000E+00

     total cpu time spent up to now is     7500.6 secs

     total energy              =   -5386.61344136 Ry
     estimated scf accuracy    <       0.00000007 Ry

     iteration # 35     ecut=    60.00 Ry     beta= 0.30
     Davidson diagonalization with overlap
     ethr =  9.00E-13,  avg # of iterations =  6.0

     negative rho (up, down):  3.504E-02 0.000E+00

     total cpu time spent up to now is     7510.7 secs

     total energy              =   -5386.61344136 Ry
     estimated scf accuracy    <       0.00000006 Ry

     iteration # 36     ecut=    60.00 Ry     beta= 0.30
     Davidson diagonalization with overlap
     ethr =  9.00E-13,  avg # of iterations =  5.0

     negative rho (up, down):  3.504E-02 0.000E+00

     total cpu time spent up to now is     7520.4 secs

     total energy              =   -5386.61344136 Ry
     estimated scf accuracy    <       0.00000001 Ry

     iteration # 37     ecut=    60.00 Ry     beta= 0.30
     Davidson diagonalization with overlap
     ethr =  9.00E-13,  avg # of iterations =  5.0

     negative rho (up, down):  3.504E-02 0.000E+00

     total cpu time spent up to now is     7529.8 secs

     total energy              =   -5386.61344136 Ry
     estimated scf accuracy    <       0.00000003 Ry

     iteration # 38     ecut=    60.00 Ry     beta= 0.30
     Davidson diagonalization with overlap
     ethr =  9.00E-13,  avg # of iterations =  2.0

     negative rho (up, down):  3.504E-02 0.000E+00

     total cpu time spent up to now is     7537.5 secs

     total energy              =   -5386.61344136 Ry
     estimated scf accuracy    <          3.1E-09 Ry

     iteration # 39     ecut=    60.00 Ry     beta= 0.30
     Davidson diagonalization with overlap
     ethr =  5.58E-13,  avg # of iterations =  2.0

     negative rho (up, down):  3.504E-02 0.000E+00

     total cpu time spent up to now is     7545.2 secs

     total energy              =   -5386.61344136 Ry
     estimated scf accuracy    <          4.9E-09 Ry

     iteration # 40     ecut=    60.00 Ry     beta= 0.30
     Davidson diagonalization with overlap
     ethr =  5.58E-13,  avg # of iterations =  2.0

     negative rho (up, down):  3.504E-02 0.000E+00

     total cpu time spent up to now is     7553.2 secs

     total energy              =   -5386.61344136 Ry
     estimated scf accuracy    <          5.7E-09 Ry

     iteration # 41     ecut=    60.00 Ry     beta= 0.30
     Davidson diagonalization with overlap
     ethr =  5.58E-13,  avg # of iterations =  2.0

     negative rho (up, down):  3.504E-02 0.000E+00

     total cpu time spent up to now is     7561.1 secs

     total energy              =   -5386.61344136 Ry
     estimated scf accuracy    <          3.4E-09 Ry

     iteration # 42     ecut=    60.00 Ry     beta= 0.30
     Davidson diagonalization with overlap
     ethr =  5.58E-13,  avg # of iterations =  1.0

     negative rho (up, down):  3.504E-02 0.000E+00

     total cpu time spent up to now is     7568.8 secs

     total energy              =   -5386.61344136 Ry
     estimated scf accuracy    <          2.5E-09 Ry

     iteration # 43     ecut=    60.00 Ry     beta= 0.30
     Davidson diagonalization with overlap
     ethr =  4.46E-13,  avg # of iterations =  1.0

     negative rho (up, down):  3.504E-02 0.000E+00

     total cpu time spent up to now is     7576.3 secs

     End of self-consistent calculation

          k = 0.0000 0.0000 0.0000 ( 46961 PWs)   bands (ev):

   -69.5679 -69.5339 -69.5065 -69.4947 -69.4780 -69.4610 -69.4403 -69.4326
   -69.4316 -69.4100 -69.2310 -62.0532 -62.0364 -62.0253 -61.9953 -61.9845
   -61.9053 -61.9048 -61.8154 -61.7813 -61.7356 -54.3370 -54.2835 -54.2688
   -54.1334 -54.0183 -53.9755 -53.9642 -53.9451 -53.8687 -53.8061 -53.7735
   -41.0162 -40.9860 -40.9745 -40.9582 -40.9452 -40.9394 -40.9058 -40.9007
   -40.8823 -40.8820 -40.8804 -40.8720 -40.8631 -40.8574 -40.8415 -40.8312
   -40.8269 -40.8037 -40.7910 -40.7901 -40.7866 -40.7722 -40.7713 -40.7690
   -40.7631 -40.7513 -40.7287 -40.7245 -40.7062 -40.6892 -40.6650 -40.5939
   -40.4553 -36.0347 -35.9999 -35.9830 -35.9727 -35.9446 -35.9359 -35.9187
   -35.8895 -35.8851 -35.8669 -35.8528 -35.8388 -35.8292 -35.8184 -35.8092
   -35.7995 -35.7907 -35.7860 -35.7849 -35.7578 -35.7441 -35.7255 -35.7023
   -35.6825 -35.6758 -35.6397 -35.6217 -35.5910 -35.5443 -35.5052 -30.8013
   -30.7139 -30.6789 -30.5807 -30.5576 -30.5444 -30.5289 -30.5270 -30.5189
   -30.5176 -30.4839 -30.4512 -30.4070 -30.4041 -30.4001 -30.3799 -30.3584
   -30.3476 -30.3368 -30.3257 -30.3105 -30.2728 -30.2689 -30.2182 -30.1987
   -30.1635 -30.1594 -30.1101 -30.1043 -30.0957 -30.0506 -30.0324 -29.9984
   -21.6382 -16.3098 -10.7266  -9.6666  -9.2511  -9.1784  -9.0669  -8.9276
    -8.5936  -8.3848  -8.3484  -8.2873  -8.2296  -8.1312  -8.0816  -7.9453
    -7.9305  -7.7789  -7.7018  -7.6421  -7.5481  -7.4979  -7.4578  -7.4335
    -7.4128  -7.3725  -7.2934  -7.2851  -7.1441  -7.0382  -6.8604  -6.8021
    -6.7327  -6.5969  -6.4793  -4.2846  -4.2392  -4.0937  -3.9429  -3.8715
    -3.8082  -3.7112  -3.2096  -2.9629  -2.8446  -2.7372  -2.6698  -2.6268
    -2.5864  -2.4698  -2.4572  -2.3929  -2.3372  -2.3360  -2.1763  -2.0770
    -2.0467  -1.9520  -1.8189  -1.8045  -1.7720  -1.7349  -1.6330  -1.5495
    -1.4798  -1.4500  -1.4296  -1.4045  -1.3799  -1.3477  -1.3313  -1.3121
    -1.3010  -1.2878  -1.2714  -1.2537  -1.2238  -1.2129  -1.1794  -1.0817
    -1.0576  -1.0534  -1.0241  -0.9816  -0.9439  -0.8901  -0.8593  -0.8063
    -0.7842  -0.7476  -0.7183  -0.7010  -0.6702  -0.6438  -0.6196  -0.6103
    -0.5908  -0.5861  -0.5715  -0.5477  -0.5405  -0.5156  -0.4494  -0.3563
    -0.2768  -0.2361  -0.1891  -0.1506  -0.1276  -0.0700  -0.0208   0.0483
     0.0507   0.1031   0.1152   0.1486   0.2190   0.2698   0.3213   0.4726
     0.4947   0.5953   0.6177   0.7216   0.7810   0.8883   0.9520   1.0147
     1.0857   1.0981   1.2165   1.2588   1.3427   1.4306   1.4628   1.4835
     1.5240   1.7494   1.7682   1.7968   1.8489   1.9128   1.9756   2.2012
     2.2454   2.3305   2.6624   2.6729   2.7664   2.8386   2.9540   2.9831
     2.9964   3.0593   3.1146   3.1229   3.1890   3.2033   3.2226   3.2673
     3.2746   3.3146   3.3273   3.3574   3.3870   3.4067   3.4535   3.4750
     3.5009   3.5116   3.5695   3.5838   3.6669   3.6892   3.7280   3.7519
     3.7800   3.8514   3.8579   3.8980   3.9333   3.9701   3.9947   4.0181
     4.0720   4.0854   4.1146   4.1494   4.1717   4.2216   4.2338   4.2654
     4.2842   4.3524   4.3686   4.4273   4.4431   4.4663   4.5507   4.5845
     4.5909   4.6321   4.6663   4.6905   4.7299   4.8174   4.8567   4.8768
     4.9115

     the Fermi energy is     3.0118 ev

!    total energy              =   -5386.61344136 Ry
     estimated scf accuracy    <          4.9E-10 Ry
     smearing contrib. (-TS)   =      -0.03628451 Ry
     internal energy E=F+TS    =   -5386.57715685 Ry

     The total energy is F=E-TS. E is the sum of the following terms:
     one-electron contribution =  -55964.45907411 Ry
     hartree contribution      =   28015.47988798 Ry
     xc contribution           =    -807.48623050 Ry
     ewald contribution        =   23592.72130267 Ry
     one-center paw contrib.   =    -222.83304289 Ry

     convergence has been achieved in  43 iterations

     negative rho (up, down):  3.504E-02 0.000E+00

     Forces acting on atoms (cartesian axes, Ry/au):

     atom    1 type  1   force =    -0.00010077    0.00162437   -0.00281053
     atom    2 type  1   force =    -0.00376213   -0.00621614    0.00343433
     atom    3 type  1   force =    -0.01204895    0.03134005   -0.00310216
     atom    4 type  1   force =    -0.00062036   -0.01511087    0.02941383
     atom    5 type  1   force =    -0.00421376    0.01132609    0.00089748
     atom    6 type  1   force =     0.00794038   -0.00118143    0.02757943
     atom    7 type  1   force =    -0.00739808   -0.01741581   -0.03027432
     atom    8 type  1   force =     0.00896762    0.02212731   -0.01335247
     atom    9 type  1   force =    -0.01705339   -0.00201583   -0.03561788
     atom   10 type  1   force =    -0.00056904    0.00090607   -0.00337441
     atom   11 type  1   force =    -0.00070754   -0.00060787   -0.00297926
     atom   12 type  2   force =     0.00077874    0.00084310    0.00278396
     atom   13 type  2   force =     0.00066203   -0.00103554    0.00025853
     atom   14 type  2   force =     0.02278638   -0.00644081    0.01979169
     atom   15 type  2   force =    -0.01263927    0.00045124    0.11295716
     atom   16 type  2   force =     0.00476000    0.00070767    0.09575073
     atom   17 type  2   force =    -0.04949489   -0.02052874   -0.01989998
     atom   18 type  2   force =     0.00298277    0.02657211   -0.03097155
     atom   19 type  2   force =    -0.01488533    0.02120782   -0.03408333
     atom   20 type  2   force =    -0.00084592   -0.01138945    0.00168272
     atom   21 type  2   force =     0.00571508    0.01583083   -0.00595377
     atom   22 type  3   force =    -0.00282184   -0.00239301    0.00072735
     atom   23 type  3   force =    -0.02257895   -0.01075931    0.00222671
     atom   24 type  3   force =     0.01908427    0.02043761   -0.01754279
     atom   25 type  3   force =     0.01547251   -0.01397147    0.06380384
     atom   26 type  3   force =    -0.00326380    0.01211028    0.12300271
     atom   27 type  3   force =     0.02992603   -0.00669433    0.00030690
     atom   28 type  3   force =    -0.00665900    0.00077851    0.04075607
     atom   29 type  3   force =     0.00167772    0.00023847    0.00380626
     atom   30 type  3   force =    -0.00014726   -0.00234587    0.00318897
     atom   31 type  3   force =     0.00543105   -0.00196259   -0.01286681
     atom   32 type  3   force =    -0.01112716   -0.00114469   -0.01031791
     atom   33 type  4   force =    -0.00008058   -0.00802518   -0.03545273
     atom   34 type  4   force =     0.00875384    0.01239900   -0.00689986
     atom   35 type  4   force =    -0.00186414   -0.01708835   -0.02264254
     atom   36 type  4   force =     0.00071577    0.01055053   -0.03502242
     atom   37 type  4   force =     0.00165157    0.00088460    0.03283824
     atom   38 type  4   force =     0.00897958   -0.01239444    0.02452187
     atom   39 type  4   force =     0.01155702   -0.00557751    0.02294827
     atom   40 type  4   force =     0.00650797   -0.00885195    0.00658278
     atom   41 type  4   force =     0.00114995    0.00051309    0.00055462
     atom   42 type  4   force =     0.00063602   -0.00130724   -0.00065767
     atom   43 type  4   force =     0.00074838   -0.00036624   -0.00176515
     atom   44 type  4   force =     0.00021936    0.00022142    0.00016815
     atom   45 type  4   force =     0.00763058    0.00723634   -0.04195123
     atom   46 type  4   force =     0.00426363   -0.00058872   -0.04390166
     atom   47 type  4   force =    -0.00565854    0.00054800   -0.02959803
     atom   48 type  4   force =    -0.01212421   -0.01037607   -0.02382681
     atom   49 type  4   force =    -0.00186150    0.00066771    0.00152005
     atom   50 type  4   force =     0.00073220    0.00115450    0.00170341
     atom   51 type  4   force =    -0.00057479    0.00008255   -0.00096008
     atom   52 type  4   force =     0.00025569   -0.00110816   -0.00061650
     atom   53 type  4   force =    -0.00193776    0.00098561   -0.02328604
     atom   54 type  4   force =    -0.00586603    0.00610119   -0.03516731
     atom   55 type  4   force =    -0.00121436    0.00409609   -0.03096061
     atom   56 type  4   force =    -0.00126755   -0.00902158   -0.02615087
     atom   57 type  4   force =    -0.01622269    0.00857002   -0.02697243
     atom   58 type  4   force =    -0.00883164   -0.00575408   -0.03889224
     atom   59 type  4   force =     0.01448276    0.01210400   -0.03009900
     atom   60 type  4   force =     0.00219949   -0.01026384   -0.02216666
     atom   61 type  4   force =     0.01182612   -0.00611664    0.01950896
     atom   62 type  4   force =     0.00706507   -0.00584078    0.02899690
     atom   63 type  4   force =     0.00954638   -0.00473733    0.00111051
     atom   64 type  4   force =     0.00299423   -0.00721320    0.02954776
     atom   65 type  4   force =    -0.00001817    0.00007006    0.00474310
     atom   66 type  5   force =    -0.00049168    0.00140817   -0.00568639
     atom   67 type  5   force =     0.00072044    0.00087614   -0.00179223
     atom   68 type  6   force =     0.00013045    0.00087454    0.00050230

     Total force =     0.013253     Total SCF correction =     0.000035
     Energy error            =      2.4E-04 Ry
     Gradient error          =      5.7E-03 Ry/Bohr

     number of scf cycles    =  19
     number of bfgs steps    =  18

     energy             old  =   -5386.6132012921 Ry
     energy             new  =   -5386.6134413615 Ry

     CASE: energy            _new < energy            _old

     new trust radius        =       0.0303068653 bohr
     new conv_thr            =       0.0000000010 Ry


ATOMIC_POSITIONS (angstrom)
Ti               0.0511836072       -0.0009608260       16.1619854601
Ti               0.0291331002        8.3621570543       11.5803477355    0   0   0
Ti               2.0975368417        4.1651924041       13.6995846818    0   0   0
Ti               8.3795041056        2.0957563981        9.4724378689    0   0   0
Ti               8.3750099733        6.2687152092        9.4933225157    0   0   0
Ti               4.2170671874        6.2898439467        9.4911460380    0   0   0
Ti               8.3706959315        2.0992468883       13.7196199333    0   0   0
Ti               8.3814371399        6.2587905921       13.6914936631    0   0   0
Ti               4.2074509867        6.2621252961       13.6953624844    0   0   0
Ti               2.1564876024        6.2223615395       15.8085721102
Ti               6.3228492918        6.2589179178       15.7448950159
V                8.4409619616        4.0980079941       15.6989938886
V                4.2810357358        4.0636836267       15.6490705045
V                4.1453105473        4.2119457891       11.5975026988    0   0   0
V                2.1879867013        0.0520231596        9.5054883674    0   0   0
V                2.1522427348        4.1319303501        9.4904675789    0   0   0
V                2.0919720210       -0.0034525136       13.6809547049    0   0   0
V                6.2957223951        4.1813414611       13.7896152224    0   0   0
V                4.2104512702        2.0785028673       13.6089365586    0   0   0
V                2.1048639148        6.2714192178       11.5723879270    0   0   0
V                6.3158808164        6.1438819511       11.5700667150    0   0   0
Cr               4.2900113869       -0.0248312320       15.5416609806
Cr               0.1179128009        4.1786640750       11.5195623927    0   0   0
Cr               4.1681598842        8.2577799257       11.6615352591    0   0   0
Cr               6.1999882077        0.1106418811        9.6948923906    0   0   0
Cr               6.2007452456        4.0563627707        9.3394942948    0   0   0
Cr               6.3039559766        8.3200573949       13.5345114413    0   0   0
Cr               4.2149984025        2.0754774019        9.7444374941    0   0   0
Cr               2.3056230237        2.0102972614       15.5646411275
Cr               6.2641814075        1.9790775731       15.5469308514
Cr               2.0054620409        2.1149661174       11.6192682974    0   0   0
Cr               6.3992485267        2.2488278238       11.6549867199    0   0   0
C                8.3671464633        0.0123762133        9.4921945368    0   0   0
C                8.3685510870        4.1683341954        9.4949958325    0   0   0
C                4.2233794382        0.0660683478        9.5137772640    0   0   0
C                4.2071394793        4.1170355077        9.4900603783    0   0   0
C                8.3753352139       -0.0047460034       13.6879749419    0   0   0
C                8.3555577743        4.1752016178       13.6998947017    0   0   0
C                4.2131653834        0.0054873094       13.6688163572    0   0   0
C                4.2220181648        4.1373219388       13.6924183861    0   0   0
C                2.1360440750        0.1377479951       15.8592596735
C                2.0719813844        4.1063311552       15.9586775696
C                6.1825053529        0.0990123588       15.8601006628
C                6.2171122230        4.1826633832       15.9040991040
C                2.1521326937        0.0175132539       11.5903255372    0   0   0
C                2.1078429860        4.1683083653       11.5671868517    0   0   0
C                6.2417937451        0.0188099573       11.6002801854    0   0   0
C                6.3283074126        4.1569384024       11.5682471185    0   0   0
C                8.1141789961        2.1938195434       15.8510760479
C                8.3491484589        6.3051497418       15.8820367493
C                4.1669031568        2.0779283870       15.7703458790
C                4.2017855447        6.4334814522       15.8872921538
C                0.0147673152        2.1438801594       11.5939557114    0   0   0
C                0.0200697416        6.2277703895       11.5821679336    0   0   0
C                4.2182428542        2.0594943016       11.6100232202    0   0   0
C                4.2117703951        6.2583221129       11.5919858628    0   0   0
C                2.1713130363        2.0860319016        9.4919958919    0   0   0
C                2.1164500536        6.2753611976        9.5156635851    0   0   0
C                6.2203151227        2.0809934926        9.4961719556    0   0   0
C                6.2861737462        6.2618311600        9.5257047400    0   0   0
C                2.1349207790        2.0551228178       13.6855329086    0   0   0
C                2.1043015435        6.2915359703       13.6724452320    0   0   0
C                6.2612712230        2.0678980813       13.6766563617    0   0   0
C                6.2981398968        6.2588382292       13.6653030130    0   0   0
C                2.1670102518        6.0885193192       18.0035455580
O                2.1946658162        5.9434882094       19.1386963783
O                8.3547313756        0.0965510260       18.0038726544
H                7.6664639370        0.4663316081       18.5751685251



     Writing config-only to output data dir ./tmp/hec3_CrTiV_f100_COOH_ads.save/ :
     XML data file
     NEW-OLD atomic charge density approx. for the potential

     Check: negative core charge=   -0.000005

     negative rho (up, down):  3.481E-02 0.000E+00

     total cpu time spent up to now is     7588.8 secs

     Self-consistent Calculation

     iteration #  1     ecut=    60.00 Ry     beta= 0.30
     Davidson diagonalization with overlap
     ethr =  1.00E-06,  avg # of iterations =  5.0

     negative rho (up, down):  3.480E-02 0.000E+00

     total cpu time spent up to now is     7598.5 secs

     total energy              =   -5386.61325808 Ry
     estimated scf accuracy    <       0.00100256 Ry

     iteration #  2     ecut=    60.00 Ry     beta= 0.30
     Davidson diagonalization with overlap
     ethr =  1.79E-07,  avg # of iterations =  6.0

     negative rho (up, down):  3.480E-02 0.000E+00

     total cpu time spent up to now is     7608.8 secs

     total energy              =   -5386.61237901 Ry
     estimated scf accuracy    <       0.03468121 Ry

     iteration #  3     ecut=    60.00 Ry     beta= 0.30
     Davidson diagonalization with overlap
     ethr =  1.79E-07,  avg # of iterations =  6.0

     negative rho (up, down):  3.480E-02 0.000E+00

     total cpu time spent up to now is     7618.8 secs

     total energy              =   -5386.61323977 Ry
     estimated scf accuracy    <       0.01402846 Ry

     iteration #  4     ecut=    60.00 Ry     beta= 0.30
     Davidson diagonalization with overlap
     ethr =  1.79E-07,  avg # of iterations =  5.0

     negative rho (up, down):  3.481E-02 0.000E+00

     total cpu time spent up to now is     7627.9 secs

     total energy              =   -5386.61345243 Ry
     estimated scf accuracy    <       0.00538501 Ry

     iteration #  5     ecut=    60.00 Ry     beta= 0.30
     Davidson diagonalization with overlap
     ethr =  1.79E-07,  avg # of iterations =  3.0

     negative rho (up, down):  3.481E-02 0.000E+00

     total cpu time spent up to now is     7636.3 secs

     total energy              =   -5386.61354196 Ry
     estimated scf accuracy    <       0.00117009 Ry

     iteration #  6     ecut=    60.00 Ry     beta= 0.30
     Davidson diagonalization with overlap
     ethr =  1.79E-07,  avg # of iterations =  1.0

     negative rho (up, down):  3.481E-02 0.000E+00

     total cpu time spent up to now is     7643.5 secs

     total energy              =   -5386.61356775 Ry
     estimated scf accuracy    <       0.00049676 Ry

     iteration #  7     ecut=    60.00 Ry     beta= 0.30
     Davidson diagonalization with overlap
     ethr =  8.85E-08,  avg # of iterations =  2.0

     negative rho (up, down):  3.481E-02 0.000E+00

     total cpu time spent up to now is     7651.4 secs

     total energy              =   -5386.61356900 Ry
     estimated scf accuracy    <       0.00067440 Ry

     iteration #  8     ecut=    60.00 Ry     beta= 0.30
     Davidson diagonalization with overlap
     ethr =  8.85E-08,  avg # of iterations =  1.0

     negative rho (up, down):  3.481E-02 0.000E+00

     total cpu time spent up to now is     7658.5 secs

     total energy              =   -5386.61357828 Ry
     estimated scf accuracy    <       0.00053404 Ry

     iteration #  9     ecut=    60.00 Ry     beta= 0.30
     Davidson diagonalization with overlap
     ethr =  8.85E-08,  avg # of iterations =  1.0

     negative rho (up, down):  3.481E-02 0.000E+00

     total cpu time spent up to now is     7665.6 secs

     total energy              =   -5386.61359000 Ry
     estimated scf accuracy    <       0.00027604 Ry

     iteration # 10     ecut=    60.00 Ry     beta= 0.30
     Davidson diagonalization with overlap
     ethr =  4.92E-08,  avg # of iterations =  1.0

     negative rho (up, down):  3.481E-02 0.000E+00

     total cpu time spent up to now is     7673.3 secs

     total energy              =   -5386.61359626 Ry
     estimated scf accuracy    <       0.00004770 Ry

     iteration # 11     ecut=    60.00 Ry     beta= 0.30
     Davidson diagonalization with overlap
     ethr =  8.50E-09,  avg # of iterations =  3.0

     negative rho (up, down):  3.481E-02 0.000E+00

     total cpu time spent up to now is     7681.8 secs

     total energy              =   -5386.61359544 Ry
     estimated scf accuracy    <       0.00011415 Ry

     iteration # 12     ecut=    60.00 Ry     beta= 0.30
     Davidson diagonalization with overlap
     ethr =  8.50E-09,  avg # of iterations =  2.0

     negative rho (up, down):  3.481E-02 0.000E+00

     total cpu time spent up to now is     7689.5 secs

     total energy              =   -5386.61359867 Ry
     estimated scf accuracy    <       0.00003127 Ry

     iteration # 13     ecut=    60.00 Ry     beta= 0.30
     Davidson diagonalization with overlap
     ethr =  5.57E-09,  avg # of iterations =  2.0

     negative rho (up, down):  3.481E-02 0.000E+00

     total cpu time spent up to now is     7697.7 secs

     total energy              =   -5386.61359740 Ry
     estimated scf accuracy    <       0.00015199 Ry

     iteration # 14     ecut=    60.00 Ry     beta= 0.30
     Davidson diagonalization with overlap
     ethr =  5.57E-09,  avg # of iterations =  1.0

     negative rho (up, down):  3.481E-02 0.000E+00

     total cpu time spent up to now is     7705.0 secs

     total energy              =   -5386.61359994 Ry
     estimated scf accuracy    <       0.00004983 Ry

     iteration # 15     ecut=    60.00 Ry     beta= 0.30
     Davidson diagonalization with overlap
     ethr =  5.57E-09,  avg # of iterations =  1.0

     negative rho (up, down):  3.481E-02 0.000E+00

     total cpu time spent up to now is     7712.1 secs

     total energy              =   -5386.61360073 Ry
     estimated scf accuracy    <       0.00000849 Ry

     iteration # 16     ecut=    60.00 Ry     beta= 0.30
     Davidson diagonalization with overlap
     ethr =  1.51E-09,  avg # of iterations =  2.0

     negative rho (up, down):  3.481E-02 0.000E+00

     total cpu time spent up to now is     7720.2 secs

     total energy              =   -5386.61360083 Ry
     estimated scf accuracy    <       0.00001041 Ry

     iteration # 17     ecut=    60.00 Ry     beta= 0.30
     Davidson diagonalization with overlap
     ethr =  1.51E-09,  avg # of iterations =  1.0

     negative rho (up, down):  3.481E-02 0.000E+00

     total cpu time spent up to now is     7727.7 secs

     total energy              =   -5386.61360118 Ry
     estimated scf accuracy    <       0.00000241 Ry

     iteration # 18     ecut=    60.00 Ry     beta= 0.30
     Davidson diagonalization with overlap
     ethr =  4.30E-10,  avg # of iterations =  5.0

     negative rho (up, down):  3.481E-02 0.000E+00

     total cpu time spent up to now is     7737.1 secs

     total energy              =   -5386.61360116 Ry
     estimated scf accuracy    <       0.00000287 Ry

     iteration # 19     ecut=    60.00 Ry     beta= 0.30
     Davidson diagonalization with overlap
     ethr =  4.30E-10,  avg # of iterations =  2.0

     negative rho (up, down):  3.481E-02 0.000E+00

     total cpu time spent up to now is     7745.2 secs

     total energy              =   -5386.61360119 Ry
     estimated scf accuracy    <       0.00000230 Ry

     iteration # 20     ecut=    60.00 Ry     beta= 0.30
     Davidson diagonalization with overlap
     ethr =  4.11E-10,  avg # of iterations =  1.0

     negative rho (up, down):  3.481E-02 0.000E+00

     total cpu time spent up to now is     7752.8 secs

     total energy              =   -5386.61360123 Ry
     estimated scf accuracy    <       0.00000295 Ry

     iteration # 21     ecut=    60.00 Ry     beta= 0.30
     Davidson diagonalization with overlap
     ethr =  4.11E-10,  avg # of iterations =  2.0

     negative rho (up, down):  3.481E-02 0.000E+00

     total cpu time spent up to now is     7760.6 secs

     total energy              =   -5386.61360128 Ry
     estimated scf accuracy    <       0.00000115 Ry

     iteration # 22     ecut=    60.00 Ry     beta= 0.30
     Davidson diagonalization with overlap
     ethr =  2.05E-10,  avg # of iterations =  2.0

     negative rho (up, down):  3.481E-02 0.000E+00

     total cpu time spent up to now is     7768.5 secs

     total energy              =   -5386.61360132 Ry
     estimated scf accuracy    <       0.00000067 Ry

     iteration # 23     ecut=    60.00 Ry     beta= 0.30
     Davidson diagonalization with overlap
     ethr =  1.20E-10,  avg # of iterations =  1.0

     negative rho (up, down):  3.481E-02 0.000E+00

     total cpu time spent up to now is     7776.0 secs

     total energy              =   -5386.61360132 Ry
     estimated scf accuracy    <       0.00000043 Ry

     iteration # 24     ecut=    60.00 Ry     beta= 0.30
     Davidson diagonalization with overlap
     ethr =  7.59E-11,  avg # of iterations =  2.0

     negative rho (up, down):  3.481E-02 0.000E+00

     total cpu time spent up to now is     7784.0 secs

     total energy              =   -5386.61360127 Ry
     estimated scf accuracy    <       0.00000367 Ry

     iteration # 25     ecut=    60.00 Ry     beta= 0.30
     Davidson diagonalization with overlap
     ethr =  7.59E-11,  avg # of iterations =  2.0

     negative rho (up, down):  3.481E-02 0.000E+00

     total cpu time spent up to now is     7791.9 secs

     total energy              =   -5386.61360131 Ry
     estimated scf accuracy    <       0.00000132 Ry

     iteration # 26     ecut=    60.00 Ry     beta= 0.30
     Davidson diagonalization with overlap
     ethr =  7.59E-11,  avg # of iterations =  1.0

     negative rho (up, down):  3.481E-02 0.000E+00

     total cpu time spent up to now is     7799.0 secs

     total energy              =   -5386.61360133 Ry
     estimated scf accuracy    <       0.00000052 Ry

     iteration # 27     ecut=    60.00 Ry     beta= 0.30
     Davidson diagonalization with overlap
     ethr =  7.59E-11,  avg # of iterations =  1.0

     negative rho (up, down):  3.481E-02 0.000E+00

     total cpu time spent up to now is     7806.2 secs

     total energy              =   -5386.61360135 Ry
     estimated scf accuracy    <       0.00000043 Ry

     iteration # 28     ecut=    60.00 Ry     beta= 0.30
     Davidson diagonalization with overlap
     ethr =  7.59E-11,  avg # of iterations =  1.0

     negative rho (up, down):  3.481E-02 0.000E+00

     total cpu time spent up to now is     7813.6 secs

     total energy              =   -5386.61360135 Ry
     estimated scf accuracy    <       0.00000003 Ry

     iteration # 29     ecut=    60.00 Ry     beta= 0.30
     Davidson diagonalization with overlap
     ethr =  5.24E-12,  avg # of iterations =  6.0

     negative rho (up, down):  3.481E-02 0.000E+00

     total cpu time spent up to now is     7823.4 secs

     total energy              =   -5386.61360135 Ry
     estimated scf accuracy    <       0.00000016 Ry

     iteration # 30     ecut=    60.00 Ry     beta= 0.30
     Davidson diagonalization with overlap
     ethr =  5.24E-12,  avg # of iterations =  5.0

     negative rho (up, down):  3.481E-02 0.000E+00

     total cpu time spent up to now is     7832.5 secs

     total energy              =   -5386.61360135 Ry
     estimated scf accuracy    <       0.00000022 Ry

     iteration # 31     ecut=    60.00 Ry     beta= 0.30
     Davidson diagonalization with overlap
     ethr =  5.24E-12,  avg # of iterations =  5.0

     negative rho (up, down):  3.481E-02 0.000E+00

     total cpu time spent up to now is     7841.6 secs

     total energy              =   -5386.61360136 Ry
     estimated scf accuracy    <       0.00000002 Ry

     iteration # 32     ecut=    60.00 Ry     beta= 0.30
     Davidson diagonalization with overlap
     ethr =  4.31E-12,  avg # of iterations =  2.0

     negative rho (up, down):  3.481E-02 0.000E+00

     total cpu time spent up to now is     7849.3 secs

     total energy              =   -5386.61360136 Ry
     estimated scf accuracy    <          7.6E-09 Ry

     iteration # 33     ecut=    60.00 Ry     beta= 0.30
     Davidson diagonalization with overlap
     ethr =  1.35E-12,  avg # of iterations =  5.0

     negative rho (up, down):  3.481E-02 0.000E+00

     total cpu time spent up to now is     7858.4 secs

     total energy              =   -5386.61360136 Ry
     estimated scf accuracy    <          5.1E-09 Ry

     iteration # 34     ecut=    60.00 Ry     beta= 0.30
     Davidson diagonalization with overlap
     ethr =  9.13E-13,  avg # of iterations =  5.0

     negative rho (up, down):  3.481E-02 0.000E+00

     total cpu time spent up to now is     7867.7 secs

     total energy              =   -5386.61360136 Ry
     estimated scf accuracy    <       0.00000003 Ry

     iteration # 35     ecut=    60.00 Ry     beta= 0.30
     Davidson diagonalization with overlap
     ethr =  9.13E-13,  avg # of iterations =  2.0

     negative rho (up, down):  3.481E-02 0.000E+00

     total cpu time spent up to now is     7875.6 secs

     total energy              =   -5386.61360136 Ry
     estimated scf accuracy    <       0.00000001 Ry

     iteration # 36     ecut=    60.00 Ry     beta= 0.30
     Davidson diagonalization with overlap
     ethr =  9.13E-13,  avg # of iterations =  2.0

     negative rho (up, down):  3.481E-02 0.000E+00

     total cpu time spent up to now is     7883.5 secs

     total energy              =   -5386.61360136 Ry
     estimated scf accuracy    <          6.5E-09 Ry

     iteration # 37     ecut=    60.00 Ry     beta= 0.30
     Davidson diagonalization with overlap
     ethr =  9.13E-13,  avg # of iterations =  1.0

     negative rho (up, down):  3.481E-02 0.000E+00

     total cpu time spent up to now is     7890.6 secs

     total energy              =   -5386.61360136 Ry
     estimated scf accuracy    <          7.6E-09 Ry

     iteration # 38     ecut=    60.00 Ry     beta= 0.30
     Davidson diagonalization with overlap
     ethr =  9.13E-13,  avg # of iterations =  1.0

     negative rho (up, down):  3.481E-02 0.000E+00

     total cpu time spent up to now is     7898.0 secs

     total energy              =   -5386.61360136 Ry
     estimated scf accuracy    <          1.2E-09 Ry

     iteration # 39     ecut=    60.00 Ry     beta= 0.30
     Davidson diagonalization with overlap
     ethr =  2.16E-13,  avg # of iterations =  4.0

     negative rho (up, down):  3.481E-02 0.000E+00

     total cpu time spent up to now is     7907.1 secs

     total energy              =   -5386.61360136 Ry
     estimated scf accuracy    <          4.2E-09 Ry

     iteration # 40     ecut=    60.00 Ry     beta= 0.30
     Davidson diagonalization with overlap
     ethr =  2.16E-13,  avg # of iterations =  4.0

     negative rho (up, down):  3.481E-02 0.000E+00

     total cpu time spent up to now is     7916.0 secs

     total energy              =   -5386.61360136 Ry
     estimated scf accuracy    <          1.8E-09 Ry

     iteration # 41     ecut=    60.00 Ry     beta= 0.30
     Davidson diagonalization with overlap
     ethr =  2.16E-13,  avg # of iterations =  4.0

     negative rho (up, down):  3.481E-02 0.000E+00

     total cpu time spent up to now is     7924.7 secs

     total energy              =   -5386.61360136 Ry
     estimated scf accuracy    <          3.9E-09 Ry

     iteration # 42     ecut=    60.00 Ry     beta= 0.30
     Davidson diagonalization with overlap
     ethr =  2.16E-13,  avg # of iterations =  2.0

     negative rho (up, down):  3.481E-02 0.000E+00

     total cpu time spent up to now is     7932.6 secs

     End of self-consistent calculation

          k = 0.0000 0.0000 0.0000 ( 46961 PWs)   bands (ev):

   -69.5716 -69.5346 -69.5080 -69.4959 -69.4807 -69.4628 -69.4419 -69.4338
   -69.4333 -69.4072 -69.2325 -62.0545 -62.0369 -62.0269 -61.9997 -61.9871
   -61.9072 -61.9066 -61.8182 -61.7824 -61.7359 -54.3376 -54.2853 -54.2707
   -54.1363 -54.0251 -53.9764 -53.9664 -53.9470 -53.8608 -53.8062 -53.7784
   -41.0173 -40.9894 -40.9777 -40.9609 -40.9469 -40.9414 -40.9085 -40.9022
   -40.8843 -40.8839 -40.8811 -40.8735 -40.8646 -40.8573 -40.8431 -40.8333
   -40.8290 -40.8051 -40.7927 -40.7920 -40.7877 -40.7748 -40.7725 -40.7710
   -40.7643 -40.7509 -40.7304 -40.7262 -40.7044 -40.6907 -40.6662 -40.5956
   -40.4568 -36.0360 -36.0015 -35.9835 -35.9741 -35.9462 -35.9384 -35.9200
   -35.8943 -35.8869 -35.8693 -35.8542 -35.8403 -35.8307 -35.8201 -35.8123
   -35.8021 -35.7944 -35.7881 -35.7870 -35.7598 -35.7458 -35.7272 -35.7042
   -35.6841 -35.6766 -35.6389 -35.6225 -35.5912 -35.5461 -35.5081 -30.7988
   -30.7160 -30.6809 -30.5821 -30.5596 -30.5474 -30.5306 -30.5287 -30.5208
   -30.5192 -30.4869 -30.4545 -30.4115 -30.4065 -30.4022 -30.3821 -30.3605
   -30.3498 -30.3411 -30.3256 -30.3129 -30.2737 -30.2683 -30.2199 -30.2016
   -30.1655 -30.1548 -30.1131 -30.1011 -30.0953 -30.0513 -30.0325 -29.9998
   -21.6298 -16.2943 -10.7283  -9.6691  -9.2524  -9.1802  -9.0680  -8.9293
    -8.5958  -8.3867  -8.3508  -8.2885  -8.2298  -8.1328  -8.0842  -7.9470
    -7.9325  -7.7801  -7.7035  -7.6452  -7.5501  -7.5001  -7.4603  -7.4353
    -7.4159  -7.3744  -7.2968  -7.2888  -7.1478  -7.0377  -6.8622  -6.8043
    -6.7343  -6.5944  -6.4797  -4.2756  -4.2324  -4.0846  -3.9436  -3.8723
    -3.8097  -3.7134  -3.2069  -2.9647  -2.8471  -2.7417  -2.6680  -2.6278
    -2.5880  -2.4714  -2.4574  -2.3944  -2.3389  -2.3364  -2.1786  -2.0784
    -2.0489  -1.9529  -1.8216  -1.8063  -1.7740  -1.7368  -1.6363  -1.5524
    -1.4790  -1.4530  -1.4315  -1.4069  -1.3845  -1.3501  -1.3326  -1.3139
    -1.3029  -1.2899  -1.2731  -1.2565  -1.2268  -1.2151  -1.1819  -1.0840
    -1.0613  -1.0568  -1.0260  -0.9849  -0.9443  -0.8930  -0.8612  -0.8087
    -0.7860  -0.7502  -0.7186  -0.7027  -0.6693  -0.6447  -0.6212  -0.6099
    -0.5921  -0.5875  -0.5724  -0.5491  -0.5406  -0.5179  -0.4531  -0.3579
    -0.2776  -0.2352  -0.1899  -0.1520  -0.1286  -0.0693  -0.0190   0.0459
     0.0497   0.1035   0.1154   0.1457   0.2182   0.2664   0.3225   0.4699
     0.4949   0.5918   0.6170   0.7197   0.7822   0.8868   0.9499   1.0141
     1.0816   1.0976   1.2131   1.2571   1.3413   1.4296   1.4611   1.4797
     1.5227   1.7477   1.7647   1.7938   1.8481   1.9106   1.9629   2.1994
     2.2408   2.3236   2.6631   2.6720   2.7648   2.8369   2.9535   2.9808
     2.9948   3.0565   3.1136   3.1219   3.1878   3.2015   3.2219   3.2655
     3.2734   3.3140   3.3256   3.3562   3.3853   3.4058   3.4513   3.4761
     3.5000   3.5102   3.5677   3.5828   3.6649   3.6872   3.7247   3.7517
     3.7780   3.8521   3.8567   3.8976   3.9303   3.9684   3.9931   4.0168
     4.0701   4.0839   4.1137   4.1485   4.1684   4.2194   4.2313   4.2631
     4.2850   4.3536   4.3672   4.4277   4.4447   4.4656   4.5497   4.5827
     4.5926   4.6303   4.6661   4.6873   4.7297   4.8157   4.8556   4.8784
     4.9102

     the Fermi energy is     3.0103 ev

!    total energy              =   -5386.61360136 Ry
     estimated scf accuracy    <          8.9E-10 Ry
     smearing contrib. (-TS)   =      -0.03636948 Ry
     internal energy E=F+TS    =   -5386.57723188 Ry

     The total energy is F=E-TS. E is the sum of the following terms:
     one-electron contribution =  -55968.62708473 Ry
     hartree contribution      =   28017.53878803 Ry
     xc contribution           =    -807.49268118 Ry
     ewald contribution        =   23594.83698453 Ry
     one-center paw contrib.   =    -222.83323853 Ry

     convergence has been achieved in  42 iterations

     negative rho (up, down):  3.481E-02 0.000E+00

     Forces acting on atoms (cartesian axes, Ry/au):

     atom    1 type  1   force =    -0.00059296    0.00167982   -0.00071271
     atom    2 type  1   force =    -0.00382555   -0.00617717    0.00338576
     atom    3 type  1   force =    -0.01262005    0.03038623   -0.00282288
     atom    4 type  1   force =    -0.00068045   -0.01511487    0.02938720
     atom    5 type  1   force =    -0.00420625    0.01134268    0.00098695
     atom    6 type  1   force =     0.00795954   -0.00119088    0.02761869
     atom    7 type  1   force =    -0.00802230   -0.01637300   -0.02912752
     atom    8 type  1   force =     0.00920453    0.02152943   -0.01420818
     atom    9 type  1   force =    -0.01703507   -0.00237940   -0.03678445
     atom   10 type  1   force =    -0.00061876    0.00161801   -0.00203117
     atom   11 type  1   force =    -0.00096460    0.00113340   -0.00129075
     atom   12 type  2   force =    -0.00027028    0.00037708   -0.00078131
     atom   13 type  2   force =     0.00128615   -0.00077649   -0.00041788
     atom   14 type  2   force =     0.02277075   -0.00638132    0.01975007
     atom   15 type  2   force =    -0.01271771    0.00051031    0.11291687
     atom   16 type  2   force =     0.00474413    0.00067661    0.09576659
     atom   17 type  2   force =    -0.04955738   -0.01983376   -0.01944600
     atom   18 type  2   force =     0.00337973    0.02575548   -0.03067799
     atom   19 type  2   force =    -0.01550546    0.02138936   -0.03434301
     atom   20 type  2   force =    -0.00071144   -0.01134148    0.00166601
     atom   21 type  2   force =     0.00563083    0.01583516   -0.00600651
     atom   22 type  3   force =    -0.00350861   -0.00119192    0.00087673
     atom   23 type  3   force =    -0.02256100   -0.01064383    0.00232745
     atom   24 type  3   force =     0.01914916    0.02059495   -0.01758877
     atom   25 type  3   force =     0.01548109   -0.01400240    0.06377967
     atom   26 type  3   force =    -0.00323702    0.01208261    0.12291647
     atom   27 type  3   force =     0.02961402   -0.00654586    0.00040155
     atom   28 type  3   force =    -0.00667234    0.00079108    0.04073661
     atom   29 type  3   force =     0.00137060    0.00210362    0.00143326
     atom   30 type  3   force =    -0.00221840   -0.00112897    0.00167810
     atom   31 type  3   force =     0.00571845   -0.00206920   -0.01333372
     atom   32 type  3   force =    -0.01139983   -0.00125460   -0.01051017
     atom   33 type  4   force =    -0.00008941   -0.00802596   -0.03551179
     atom   34 type  4   force =     0.00873669    0.01238893   -0.00698886
     atom   35 type  4   force =    -0.00187792   -0.01707591   -0.02265292
     atom   36 type  4   force =     0.00071969    0.01057576   -0.03502113
     atom   37 type  4   force =     0.00164625    0.00112539    0.03320667
     atom   38 type  4   force =     0.00908566   -0.01222014    0.02581394
     atom   39 type  4   force =     0.01175905   -0.00586609    0.02272282
     atom   40 type  4   force =     0.00650627   -0.00873827    0.00656069
     atom   41 type  4   force =     0.00169374   -0.00141162    0.00176387
     atom   42 type  4   force =     0.00145536   -0.00084011   -0.00005235
     atom   43 type  4   force =     0.00096444   -0.00165059   -0.00110159
     atom   44 type  4   force =     0.00048331    0.00036242    0.00053128
     atom   45 type  4   force =     0.00768463    0.00725143   -0.04207814
     atom   46 type  4   force =     0.00431700   -0.00055630   -0.04392808
     atom   47 type  4   force =    -0.00560248    0.00060742   -0.02980764
     atom   48 type  4   force =    -0.01211528   -0.01030203   -0.02394584
     atom   49 type  4   force =     0.00153173    0.00046051    0.00191330
     atom   50 type  4   force =     0.00105173   -0.00015597    0.00063633
     atom   51 type  4   force =    -0.00066291   -0.00151456   -0.00077223
     atom   52 type  4   force =    -0.00048084   -0.00165291   -0.00024908
     atom   53 type  4   force =    -0.00184255    0.00086427   -0.02272801
     atom   54 type  4   force =    -0.00591018    0.00613533   -0.03467391
     atom   55 type  4   force =    -0.00113989    0.00405303   -0.03081201
     atom   56 type  4   force =    -0.00123000   -0.00902264   -0.02600178
     atom   57 type  4   force =    -0.01625639    0.00855731   -0.02687428
     atom   58 type  4   force =    -0.00882244   -0.00577399   -0.03891937
     atom   59 type  4   force =     0.01452661    0.01213331   -0.02995560
     atom   60 type  4   force =     0.00216280   -0.01027634   -0.02216466
     atom   61 type  4   force =     0.01222878   -0.00605812    0.02069328
     atom   62 type  4   force =     0.00705023   -0.00588114    0.02871320
     atom   63 type  4   force =     0.00941340   -0.00462212    0.00101758
     atom   64 type  4   force =     0.00322348   -0.00747050    0.02879326
     atom   65 type  4   force =    -0.00024813   -0.00003957    0.00545514
     atom   66 type  5   force =    -0.00038531    0.00152949   -0.00637465
     atom   67 type  5   force =     0.00067497    0.00091660   -0.00283778
     atom   68 type  6   force =     0.00036439    0.00079303    0.00008536

     Total force =     0.012779     Total SCF correction =     0.000022
     Energy error            =      1.6E-04 Ry
     Gradient error          =      6.4E-03 Ry/Bohr

     number of scf cycles    =  20
     number of bfgs steps    =  19

     energy             old  =   -5386.6134413615 Ry
     energy             new  =   -5386.6136013586 Ry

     CASE: energy            _new < energy            _old

     new trust radius        =       0.0121739993 bohr
     new conv_thr            =       0.0000000010 Ry


ATOMIC_POSITIONS (angstrom)
Ti               0.0496577276        0.0014312541       16.1586947331
Ti               0.0291331002        8.3621570543       11.5803477355    0   0   0
Ti               2.0975368417        4.1651924041       13.6995846818    0   0   0
Ti               8.3795041056        2.0957563981        9.4724378689    0   0   0
Ti               8.3750099733        6.2687152092        9.4933225157    0   0   0
Ti               4.2170671874        6.2898439467        9.4911460380    0   0   0
Ti               8.3706959315        2.0992468883       13.7196199333    0   0   0
Ti               8.3814371399        6.2587905921       13.6914936631    0   0   0
Ti               4.2074509867        6.2621252961       13.6953624844    0   0   0
Ti               2.1552719573        6.2229860076       15.8058721930
Ti               6.3229034280        6.2577141796       15.7426639202
V                8.4402574615        4.0978818309       15.7021994883
V                4.2804136026        4.0660715388       15.6489521054
V                4.1453105473        4.2119457891       11.5975026988    0   0   0
V                2.1879867013        0.0520231596        9.5054883674    0   0   0
V                2.1522427348        4.1319303501        9.4904675789    0   0   0
V                2.0919720210       -0.0034525136       13.6809547049    0   0   0
V                6.2957223951        4.1813414611       13.7896152224    0   0   0
V                4.2104512702        2.0785028673       13.6089365586    0   0   0
V                2.1048639148        6.2714192178       11.5723879270    0   0   0
V                6.3158808164        6.1438819511       11.5700667150    0   0   0
Cr               4.2872225170       -0.0283354082       15.5418460534
Cr               0.1179128009        4.1786640750       11.5195623927    0   0   0
Cr               4.1681598842        8.2577799257       11.6615352591    0   0   0
Cr               6.1999882077        0.1106418811        9.6948923906    0   0   0
Cr               6.2007452456        4.0563627707        9.3394942948    0   0   0
Cr               6.3039559766        8.3200573949       13.5345114413    0   0   0
Cr               4.2149984025        2.0754774019        9.7444374941    0   0   0
Cr               2.3085197597        2.0116887054       15.5667499516
Cr               6.2582303394        1.9768833145       15.5480586799
Cr               2.0054620409        2.1149661174       11.6192682974    0   0   0
Cr               6.3992485267        2.2488278238       11.6549867199    0   0   0
C                8.3671464633        0.0123762133        9.4921945368    0   0   0
C                8.3685510870        4.1683341954        9.4949958325    0   0   0
C                4.2233794382        0.0660683478        9.5137772640    0   0   0
C                4.2071394793        4.1170355077        9.4900603783    0   0   0
C                8.3753352139       -0.0047460034       13.6879749419    0   0   0
C                8.3555577743        4.1752016178       13.6998947017    0   0   0
C                4.2131653834        0.0054873094       13.6688163572    0   0   0
C                4.2220181648        4.1373219388       13.6924183861    0   0   0
C                2.1383460102        0.1374124146       15.8584095264
C                2.0731231569        4.1044568941       15.9581247147
C                6.1842775977        0.0971930544       15.8578348836
C                6.2183844002        4.1816485718       15.9038237471
C                2.1521326937        0.0175132539       11.5903255372    0   0   0
C                2.1078429860        4.1683083653       11.5671868517    0   0   0
C                6.2417937451        0.0188099573       11.6002801854    0   0   0
C                6.3283074126        4.1569384024       11.5682471185    0   0   0
C                8.1141401719        2.1955190282       15.8522842532
C                8.3510185463        6.3072218135       15.8818476156
C                4.1683053014        2.0769350337       15.7709195259
C                4.2035507992        6.4280259489       15.8844881249
C                0.0147673152        2.1438801594       11.5939557114    0   0   0
C                0.0200697416        6.2277703895       11.5821679336    0   0   0
C                4.2182428542        2.0594943016       11.6100232202    0   0   0
C                4.2117703951        6.2583221129       11.5919858628    0   0   0
C                2.1713130363        2.0860319016        9.4919958919    0   0   0
C                2.1164500536        6.2753611976        9.5156635851    0   0   0
C                6.2203151227        2.0809934926        9.4961719556    0   0   0
C                6.2861737462        6.2618311600        9.5257047400    0   0   0
C                2.1349207790        2.0551228178       13.6855329086    0   0   0
C                2.1043015435        6.2915359703       13.6724452320    0   0   0
C                6.2612712230        2.0678980813       13.6766563617    0   0   0
C                6.2981398968        6.2588382292       13.6653030130    0   0   0
C                2.1670371994        6.0900199326       18.0026352725
O                2.1941258988        5.9443956870       19.1369411221
O                8.3549776380        0.0982382982       18.0011741560
H                7.6675575781        0.4670515102       18.5747953302



     Writing config-only to output data dir ./tmp/hec3_CrTiV_f100_COOH_ads.save/ :
     XML data file
     NEW-OLD atomic charge density approx. for the potential

     Check: negative core charge=   -0.000005

     negative rho (up, down):  3.477E-02 0.000E+00

     total cpu time spent up to now is     7945.5 secs

     Self-consistent Calculation

     iteration #  1     ecut=    60.00 Ry     beta= 0.30
     Davidson diagonalization with overlap
     ethr =  1.00E-06,  avg # of iterations =  5.0

     Threshold (ethr) on eigenvalues was too large:
     Diagonalizing with lowered threshold

     Davidson diagonalization with overlap
     ethr =  8.24E-08,  avg # of iterations =  5.0

     negative rho (up, down):  3.477E-02 0.000E+00

     total cpu time spent up to now is     7960.0 secs

     total energy              =   -5386.61355340 Ry
     estimated scf accuracy    <       0.00051993 Ry

     iteration #  2     ecut=    60.00 Ry     beta= 0.30
     Davidson diagonalization with overlap
     ethr =  9.27E-08,  avg # of iterations =  6.0

     negative rho (up, down):  3.477E-02 0.000E+00

     total cpu time spent up to now is     7970.3 secs

     total energy              =   -5386.61315588 Ry
     estimated scf accuracy    <       0.01423448 Ry

     iteration #  3     ecut=    60.00 Ry     beta= 0.30
     Davidson diagonalization with overlap
     ethr =  9.27E-08,  avg # of iterations =  6.0

     negative rho (up, down):  3.477E-02 0.000E+00

     total cpu time spent up to now is     7980.6 secs

     total energy              =   -5386.61356994 Ry
     estimated scf accuracy    <       0.00451669 Ry

     iteration #  4     ecut=    60.00 Ry     beta= 0.30
     Davidson diagonalization with overlap
     ethr =  9.27E-08,  avg # of iterations =  5.0

     negative rho (up, down):  3.477E-02 0.000E+00

     total cpu time spent up to now is     7990.0 secs

     total energy              =   -5386.61364809 Ry
     estimated scf accuracy    <       0.00229705 Ry

     iteration #  5     ecut=    60.00 Ry     beta= 0.30
     Davidson diagonalization with overlap
     ethr =  9.27E-08,  avg # of iterations =  5.0

     negative rho (up, down):  3.477E-02 0.000E+00

     total cpu time spent up to now is     7999.4 secs

     total energy              =   -5386.61367242 Ry
     estimated scf accuracy    <       0.00205776 Ry

     iteration #  6     ecut=    60.00 Ry     beta= 0.30
     Davidson diagonalization with overlap
     ethr =  9.27E-08,  avg # of iterations =  2.0

     negative rho (up, down):  3.477E-02 0.000E+00

     total cpu time spent up to now is     8007.3 secs

     total energy              =   -5386.61370121 Ry
     estimated scf accuracy    <       0.00053811 Ry

     iteration #  7     ecut=    60.00 Ry     beta= 0.30
     Davidson diagonalization with overlap
     ethr =  9.27E-08,  avg # of iterations =  1.0

     negative rho (up, down):  3.477E-02 0.000E+00

     total cpu time spent up to now is     8014.9 secs

     total energy              =   -5386.61371242 Ry
     estimated scf accuracy    <       0.00020568 Ry

     iteration #  8     ecut=    60.00 Ry     beta= 0.30
     Davidson diagonalization with overlap
     ethr =  3.67E-08,  avg # of iterations =  2.0

     negative rho (up, down):  3.477E-02 0.000E+00

     total cpu time spent up to now is     8023.3 secs

     total energy              =   -5386.61371379 Ry
     estimated scf accuracy    <       0.00024177 Ry

     iteration #  9     ecut=    60.00 Ry     beta= 0.30
     Davidson diagonalization with overlap
     ethr =  3.67E-08,  avg # of iterations =  1.0

     negative rho (up, down):  3.477E-02 0.000E+00

     total cpu time spent up to now is     8030.5 secs

     total energy              =   -5386.61372037 Ry
     estimated scf accuracy    <       0.00006726 Ry

     iteration # 10     ecut=    60.00 Ry     beta= 0.30
     Davidson diagonalization with overlap
     ethr =  1.20E-08,  avg # of iterations =  2.0

     negative rho (up, down):  3.477E-02 0.000E+00

     total cpu time spent up to now is     8038.3 secs

     total energy              =   -5386.61372297 Ry
     estimated scf accuracy    <       0.00001449 Ry

     iteration # 11     ecut=    60.00 Ry     beta= 0.30
     Davidson diagonalization with overlap
     ethr =  2.58E-09,  avg # of iterations =  5.0

     negative rho (up, down):  3.478E-02 0.000E+00

     total cpu time spent up to now is     8047.4 secs

     total energy              =   -5386.61372262 Ry
     estimated scf accuracy    <       0.00003660 Ry

     iteration # 12     ecut=    60.00 Ry     beta= 0.30
     Davidson diagonalization with overlap
     ethr =  2.58E-09,  avg # of iterations =  5.0

     negative rho (up, down):  3.478E-02 0.000E+00

     total cpu time spent up to now is     8056.6 secs

     total energy              =   -5386.61372395 Ry
     estimated scf accuracy    <       0.00000985 Ry

     iteration # 13     ecut=    60.00 Ry     beta= 0.30
     Davidson diagonalization with overlap
     ethr =  1.76E-09,  avg # of iterations =  5.0

     negative rho (up, down):  3.478E-02 0.000E+00

     total cpu time spent up to now is     8065.7 secs

     total energy              =   -5386.61372431 Ry
     estimated scf accuracy    <       0.00000870 Ry

     iteration # 14     ecut=    60.00 Ry     beta= 0.30
     Davidson diagonalization with overlap
     ethr =  1.55E-09,  avg # of iterations =  1.0

     negative rho (up, down):  3.478E-02 0.000E+00

     total cpu time spent up to now is     8072.9 secs

     total energy              =   -5386.61372454 Ry
     estimated scf accuracy    <       0.00000245 Ry

     iteration # 15     ecut=    60.00 Ry     beta= 0.30
     Davidson diagonalization with overlap
     ethr =  4.37E-10,  avg # of iterations =  4.0

     negative rho (up, down):  3.478E-02 0.000E+00

     total cpu time spent up to now is     8081.7 secs

     total energy              =   -5386.61372443 Ry
     estimated scf accuracy    <       0.00000935 Ry

     iteration # 16     ecut=    60.00 Ry     beta= 0.30
     Davidson diagonalization with overlap
     ethr =  4.37E-10,  avg # of iterations =  2.0

     negative rho (up, down):  3.478E-02 0.000E+00

     total cpu time spent up to now is     8090.0 secs

     total energy              =   -5386.61372451 Ry
     estimated scf accuracy    <       0.00001058 Ry

     iteration # 17     ecut=    60.00 Ry     beta= 0.30
     Davidson diagonalization with overlap
     ethr =  4.37E-10,  avg # of iterations =  2.0

     negative rho (up, down):  3.478E-02 0.000E+00

     total cpu time spent up to now is     8098.0 secs

     total energy              =   -5386.61372466 Ry
     estimated scf accuracy    <       0.00000202 Ry

     iteration # 18     ecut=    60.00 Ry     beta= 0.30
     Davidson diagonalization with overlap
     ethr =  3.59E-10,  avg # of iterations =  1.0

     negative rho (up, down):  3.478E-02 0.000E+00

     total cpu time spent up to now is     8105.5 secs

     total energy              =   -5386.61372469 Ry
     estimated scf accuracy    <       0.00000126 Ry

     iteration # 19     ecut=    60.00 Ry     beta= 0.30
     Davidson diagonalization with overlap
     ethr =  2.25E-10,  avg # of iterations =  2.0

     negative rho (up, down):  3.478E-02 0.000E+00

     total cpu time spent up to now is     8113.6 secs

     total energy              =   -5386.61372469 Ry
     estimated scf accuracy    <       0.00000146 Ry

     iteration # 20     ecut=    60.00 Ry     beta= 0.30
     Davidson diagonalization with overlap
     ethr =  2.25E-10,  avg # of iterations =  1.0

     negative rho (up, down):  3.478E-02 0.000E+00

     total cpu time spent up to now is     8120.7 secs

     total energy              =   -5386.61372473 Ry
     estimated scf accuracy    <       0.00000085 Ry

     iteration # 21     ecut=    60.00 Ry     beta= 0.30
     Davidson diagonalization with overlap
     ethr =  1.52E-10,  avg # of iterations =  1.0

     negative rho (up, down):  3.478E-02 0.000E+00

     total cpu time spent up to now is     8127.9 secs

     total energy              =   -5386.61372474 Ry
     estimated scf accuracy    <       0.00000072 Ry

     iteration # 22     ecut=    60.00 Ry     beta= 0.30
     Davidson diagonalization with overlap
     ethr =  1.28E-10,  avg # of iterations =  1.0

     negative rho (up, down):  3.478E-02 0.000E+00

     total cpu time spent up to now is     8135.2 secs

     total energy              =   -5386.61372476 Ry
     estimated scf accuracy    <       0.00000022 Ry

     iteration # 23     ecut=    60.00 Ry     beta= 0.30
     Davidson diagonalization with overlap
     ethr =  3.84E-11,  avg # of iterations =  2.0

     negative rho (up, down):  3.478E-02 0.000E+00

     total cpu time spent up to now is     8143.0 secs

     total energy              =   -5386.61372476 Ry
     estimated scf accuracy    <       0.00000018 Ry

     iteration # 24     ecut=    60.00 Ry     beta= 0.30
     Davidson diagonalization with overlap
     ethr =  3.22E-11,  avg # of iterations =  2.0

     negative rho (up, down):  3.478E-02 0.000E+00

     total cpu time spent up to now is     8150.7 secs

     total energy              =   -5386.61372476 Ry
     estimated scf accuracy    <       0.00000036 Ry

     iteration # 25     ecut=    60.00 Ry     beta= 0.30
     Davidson diagonalization with overlap
     ethr =  3.22E-11,  avg # of iterations =  1.0

     negative rho (up, down):  3.478E-02 0.000E+00

     total cpu time spent up to now is     8157.8 secs

     total energy              =   -5386.61372476 Ry
     estimated scf accuracy    <       0.00000019 Ry

     iteration # 26     ecut=    60.00 Ry     beta= 0.30
     Davidson diagonalization with overlap
     ethr =  3.22E-11,  avg # of iterations =  1.0

     negative rho (up, down):  3.478E-02 0.000E+00

     total cpu time spent up to now is     8165.2 secs

     total energy              =   -5386.61372476 Ry
     estimated scf accuracy    <       0.00000040 Ry

     iteration # 27     ecut=    60.00 Ry     beta= 0.30
     Davidson diagonalization with overlap
     ethr =  3.22E-11,  avg # of iterations =  1.0

     negative rho (up, down):  3.478E-02 0.000E+00

     total cpu time spent up to now is     8172.5 secs

     total energy              =   -5386.61372477 Ry
     estimated scf accuracy    <       0.00000006 Ry

     iteration # 28     ecut=    60.00 Ry     beta= 0.30
     Davidson diagonalization with overlap
     ethr =  1.05E-11,  avg # of iterations =  1.0

     negative rho (up, down):  3.478E-02 0.000E+00

     total cpu time spent up to now is     8179.9 secs

     total energy              =   -5386.61372477 Ry
     estimated scf accuracy    <       0.00000006 Ry

     iteration # 29     ecut=    60.00 Ry     beta= 0.30
     Davidson diagonalization with overlap
     ethr =  1.01E-11,  avg # of iterations =  2.0

     negative rho (up, down):  3.478E-02 0.000E+00

     total cpu time spent up to now is     8187.9 secs

     total energy              =   -5386.61372477 Ry
     estimated scf accuracy    <       0.00000008 Ry

     iteration # 30     ecut=    60.00 Ry     beta= 0.30
     Davidson diagonalization with overlap
     ethr =  1.01E-11,  avg # of iterations =  1.0

     negative rho (up, down):  3.478E-02 0.000E+00

     total cpu time spent up to now is     8195.2 secs

     total energy              =   -5386.61372477 Ry
     estimated scf accuracy    <       0.00000005 Ry

     iteration # 31     ecut=    60.00 Ry     beta= 0.30
     Davidson diagonalization with overlap
     ethr =  8.16E-12,  avg # of iterations =  1.0

     negative rho (up, down):  3.478E-02 0.000E+00

     total cpu time spent up to now is     8202.4 secs

     total energy              =   -5386.61372477 Ry
     estimated scf accuracy    <       0.00000002 Ry

     iteration # 32     ecut=    60.00 Ry     beta= 0.30
     Davidson diagonalization with overlap
     ethr =  3.21E-12,  avg # of iterations =  1.0

     negative rho (up, down):  3.478E-02 0.000E+00

     total cpu time spent up to now is     8209.5 secs

     total energy              =   -5386.61372477 Ry
     estimated scf accuracy    <          8.5E-09 Ry

     iteration # 33     ecut=    60.00 Ry     beta= 0.30
     Davidson diagonalization with overlap
     ethr =  1.52E-12,  avg # of iterations =  1.0

     negative rho (up, down):  3.478E-02 0.000E+00

     total cpu time spent up to now is     8216.7 secs

     total energy              =   -5386.61372477 Ry
     estimated scf accuracy    <          6.5E-09 Ry

     iteration # 34     ecut=    60.00 Ry     beta= 0.30
     Davidson diagonalization with overlap
     ethr =  1.15E-12,  avg # of iterations =  5.0

     negative rho (up, down):  3.478E-02 0.000E+00

     total cpu time spent up to now is     8225.8 secs

     total energy              =   -5386.61372477 Ry
     estimated scf accuracy    <       0.00000002 Ry

     iteration # 35     ecut=    60.00 Ry     beta= 0.30
     Davidson diagonalization with overlap
     ethr =  1.15E-12,  avg # of iterations =  5.0

     negative rho (up, down):  3.478E-02 0.000E+00

     total cpu time spent up to now is     8234.6 secs

     total energy              =   -5386.61372477 Ry
     estimated scf accuracy    <          6.1E-09 Ry

     iteration # 36     ecut=    60.00 Ry     beta= 0.30
     Davidson diagonalization with overlap
     ethr =  1.09E-12,  avg # of iterations =  1.0

     negative rho (up, down):  3.478E-02 0.000E+00

     total cpu time spent up to now is     8241.7 secs

     total energy              =   -5386.61372477 Ry
     estimated scf accuracy    <       0.00000001 Ry

     iteration # 37     ecut=    60.00 Ry     beta= 0.30
     Davidson diagonalization with overlap
     ethr =  1.09E-12,  avg # of iterations =  1.0

     negative rho (up, down):  3.478E-02 0.000E+00

     total cpu time spent up to now is     8249.0 secs

     total energy              =   -5386.61372477 Ry
     estimated scf accuracy    <          5.1E-09 Ry

     iteration # 38     ecut=    60.00 Ry     beta= 0.30
     Davidson diagonalization with overlap
     ethr =  9.12E-13,  avg # of iterations =  1.0

     negative rho (up, down):  3.478E-02 0.000E+00

     total cpu time spent up to now is     8256.3 secs

     total energy              =   -5386.61372477 Ry
     estimated scf accuracy    <          4.9E-09 Ry

     iteration # 39     ecut=    60.00 Ry     beta= 0.30
     Davidson diagonalization with overlap
     ethr =  8.80E-13,  avg # of iterations =  1.0

     negative rho (up, down):  3.478E-02 0.000E+00

     total cpu time spent up to now is     8263.6 secs

     total energy              =   -5386.61372477 Ry
     estimated scf accuracy    <          2.7E-09 Ry

     iteration # 40     ecut=    60.00 Ry     beta= 0.30
     Davidson diagonalization with overlap
     ethr =  4.82E-13,  avg # of iterations =  1.0

     negative rho (up, down):  3.478E-02 0.000E+00

     total cpu time spent up to now is     8271.1 secs

     total energy              =   -5386.61372477 Ry
     estimated scf accuracy    <          3.2E-09 Ry

     iteration # 41     ecut=    60.00 Ry     beta= 0.30
     Davidson diagonalization with overlap
     ethr =  4.82E-13,  avg # of iterations =  1.0

     negative rho (up, down):  3.478E-02 0.000E+00

     total cpu time spent up to now is     8278.3 secs

     total energy              =   -5386.61372477 Ry
     estimated scf accuracy    <          2.0E-09 Ry

     iteration # 42     ecut=    60.00 Ry     beta= 0.30
     Davidson diagonalization with overlap
     ethr =  3.52E-13,  avg # of iterations =  1.0

     negative rho (up, down):  3.478E-02 0.000E+00

     total cpu time spent up to now is     8285.4 secs

     total energy              =   -5386.61372477 Ry
     estimated scf accuracy    <          1.1E-09 Ry

     iteration # 43     ecut=    60.00 Ry     beta= 0.30
     Davidson diagonalization with overlap
     ethr =  1.90E-13,  avg # of iterations =  1.0

     negative rho (up, down):  3.478E-02 0.000E+00

     total cpu time spent up to now is     8292.7 secs

     End of self-consistent calculation

          k = 0.0000 0.0000 0.0000 ( 46961 PWs)   bands (ev):

   -69.5708 -69.5339 -69.5072 -69.4952 -69.4801 -69.4621 -69.4414 -69.4327
   -69.4322 -69.4062 -69.2319 -62.0534 -62.0362 -62.0261 -61.9986 -61.9864
   -61.9065 -61.9058 -61.8164 -61.7831 -61.7359 -54.3362 -54.2840 -54.2700
   -54.1354 -54.0244 -53.9738 -53.9656 -53.9454 -53.8565 -53.8056 -53.7762
   -41.0167 -40.9880 -40.9768 -40.9600 -40.9462 -40.9405 -40.9076 -40.9016
   -40.8833 -40.8832 -40.8791 -40.8729 -40.8638 -40.8552 -40.8424 -40.8327
   -40.8284 -40.8044 -40.7913 -40.7907 -40.7871 -40.7748 -40.7720 -40.7700
   -40.7637 -40.7502 -40.7300 -40.7256 -40.7033 -40.6888 -40.6656 -40.5949
   -40.4562 -36.0358 -36.0007 -35.9815 -35.9730 -35.9453 -35.9375 -35.9192
   -35.8928 -35.8861 -35.8685 -35.8536 -35.8397 -35.8299 -35.8193 -35.8115
   -35.8010 -35.7936 -35.7875 -35.7862 -35.7590 -35.7449 -35.7259 -35.7054
   -35.6833 -35.6758 -35.6381 -35.6226 -35.5911 -35.5456 -35.5070 -30.7963
   -30.7146 -30.6803 -30.5807 -30.5585 -30.5465 -30.5298 -30.5276 -30.5201
   -30.5182 -30.4857 -30.4534 -30.4103 -30.4054 -30.4009 -30.3801 -30.3590
   -30.3490 -30.3400 -30.3235 -30.3115 -30.2723 -30.2660 -30.2185 -30.2003
   -30.1646 -30.1507 -30.1115 -30.0979 -30.0942 -30.0493 -30.0307 -29.9974
   -21.6441 -16.2864 -10.7276  -9.6687  -9.2513  -9.1792  -9.0673  -8.9288
    -8.5956  -8.3858  -8.3502  -8.2874  -8.2281  -8.1322  -8.0841  -7.9462
    -7.9317  -7.7798  -7.7027  -7.6449  -7.5494  -7.5005  -7.4598  -7.4345
    -7.4151  -7.3735  -7.2957  -7.2882  -7.1499  -7.0342  -6.8614  -6.8034
    -6.7344  -6.5959  -6.4781  -4.2797  -4.2415  -4.0847  -3.9419  -3.8714
    -3.8093  -3.7118  -3.2061  -2.9634  -2.8462  -2.7430  -2.6667  -2.6261
    -2.5867  -2.4704  -2.4557  -2.3934  -2.3376  -2.3348  -2.1778  -2.0774
    -2.0479  -1.9519  -1.8199  -1.8051  -1.7729  -1.7359  -1.6356  -1.5515
    -1.4769  -1.4534  -1.4308  -1.4064  -1.3833  -1.3495  -1.3317  -1.3129
    -1.3020  -1.2891  -1.2703  -1.2556  -1.2257  -1.2140  -1.1814  -1.0823
    -1.0603  -1.0556  -1.0254  -0.9836  -0.9435  -0.8916  -0.8603  -0.8076
    -0.7857  -0.7508  -0.7163  -0.7014  -0.6673  -0.6446  -0.6208  -0.6090
    -0.5912  -0.5867  -0.5703  -0.5477  -0.5394  -0.5167  -0.4515  -0.3568
    -0.2766  -0.2376  -0.1880  -0.1513  -0.1280  -0.0683  -0.0174   0.0460
     0.0504   0.1041   0.1165   0.1474   0.2207   0.2665   0.3238   0.4725
     0.4977   0.5950   0.6206   0.7210   0.7852   0.8891   0.9501   1.0154
     1.0820   1.1014   1.2164   1.2580   1.3419   1.4307   1.4624   1.4808
     1.5243   1.7491   1.7666   1.7959   1.8497   1.9110   1.9689   2.1967
     2.2423   2.3294   2.6636   2.6728   2.7659   2.8376   2.9546   2.9811
     2.9953   3.0566   3.1151   3.1228   3.1892   3.2009   3.2223   3.2661
     3.2745   3.3167   3.3254   3.3561   3.3857   3.4060   3.4520   3.4748
     3.5006   3.5109   3.5678   3.5825   3.6652   3.6875   3.7249   3.7517
     3.7796   3.8523   3.8559   3.8965   3.9335   3.9696   3.9938   4.0178
     4.0710   4.0852   4.1154   4.1499   4.1690   4.2198   4.2324   4.2635
     4.2859   4.3542   4.3686   4.4291   4.4466   4.4668   4.5510   4.5832
     4.5942   4.6300   4.6662   4.6882   4.7319   4.8156   4.8563   4.8812
     4.9106

     the Fermi energy is     3.0110 ev

!    total energy              =   -5386.61372477 Ry
     estimated scf accuracy    <          4.4E-10 Ry
     smearing contrib. (-TS)   =      -0.03633575 Ry
     internal energy E=F+TS    =   -5386.57738902 Ry

     The total energy is F=E-TS. E is the sum of the following terms:
     one-electron contribution =  -55971.96861474 Ry
     hartree contribution      =   28019.22788335 Ry
     xc contribution           =    -807.49071000 Ry
     ewald contribution        =   23596.48718438 Ry
     one-center paw contrib.   =    -222.83313201 Ry

     convergence has been achieved in  43 iterations

     negative rho (up, down):  3.478E-02 0.000E+00

     Forces acting on atoms (cartesian axes, Ry/au):

     atom    1 type  1   force =     0.00034301    0.00114690    0.00013151
     atom    2 type  1   force =    -0.00386234   -0.00620261    0.00339972
     atom    3 type  1   force =    -0.01295552    0.02980705   -0.00264605
     atom    4 type  1   force =    -0.00065455   -0.01510962    0.02938268
     atom    5 type  1   force =    -0.00417111    0.01137268    0.00100135
     atom    6 type  1   force =     0.00797772   -0.00119054    0.02764324
     atom    7 type  1   force =    -0.00822128   -0.01602756   -0.02765251
     atom    8 type  1   force =     0.00937363    0.02143635   -0.01415024
     atom    9 type  1   force =    -0.01680399   -0.00283535   -0.03771784
     atom   10 type  1   force =    -0.00011895    0.00110858   -0.00061020
     atom   11 type  1   force =    -0.00015007    0.00171064    0.00002875
     atom   12 type  2   force =     0.00046575   -0.00025345   -0.00261617
     atom   13 type  2   force =     0.00221564   -0.00062359   -0.00049579
     atom   14 type  2   force =     0.02277692   -0.00638794    0.01978202
     atom   15 type  2   force =    -0.01275801    0.00050850    0.11294596
     atom   16 type  2   force =     0.00475193    0.00065416    0.09576411
     atom   17 type  2   force =    -0.04928171   -0.01921205   -0.01926223
     atom   18 type  2   force =     0.00391064    0.02505644   -0.03056552
     atom   19 type  2   force =    -0.01539146    0.02118143   -0.03418069
     atom   20 type  2   force =    -0.00064734   -0.01134841    0.00169209
     atom   21 type  2   force =     0.00567822    0.01581402   -0.00599081
     atom   22 type  3   force =    -0.00261780   -0.00075792    0.00064088
     atom   23 type  3   force =    -0.02259430   -0.01057941    0.00215610
     atom   24 type  3   force =     0.01908182    0.02048979   -0.01746944
     atom   25 type  3   force =     0.01549371   -0.01400687    0.06381291
     atom   26 type  3   force =    -0.00323278    0.01205618    0.12293070
     atom   27 type  3   force =     0.02966722   -0.00638770    0.00052785
     atom   28 type  3   force =    -0.00664367    0.00081920    0.04071528
     atom   29 type  3   force =     0.00115103    0.00219302   -0.00036487
     atom   30 type  3   force =     0.00011909   -0.00117244    0.00000545
     atom   31 type  3   force =     0.00561588   -0.00213996   -0.01339429
     atom   32 type  3   force =    -0.01124400   -0.00141133   -0.01048945
     atom   33 type  4   force =    -0.00007438   -0.00804517   -0.03551394
     atom   34 type  4   force =     0.00874499    0.01238165   -0.00694389
     atom   35 type  4   force =    -0.00187247   -0.01711675   -0.02264865
     atom   36 type  4   force =     0.00070526    0.01057253   -0.03500887
     atom   37 type  4   force =     0.00175844    0.00143575    0.03321805
     atom   38 type  4   force =     0.00894054   -0.01233194    0.02653299
     atom   39 type  4   force =     0.01159303   -0.00615500    0.02286071
     atom   40 type  4   force =     0.00644652   -0.00857636    0.00642080
     atom   41 type  4   force =     0.00107237   -0.00176522    0.00226346
     atom   42 type  4   force =     0.00111469   -0.00004755    0.00025636
     atom   43 type  4   force =    -0.00042600   -0.00139770   -0.00075702
     atom   44 type  4   force =    -0.00022735    0.00078286    0.00059874
     atom   45 type  4   force =     0.00770897    0.00726868   -0.04215931
     atom   46 type  4   force =     0.00431717   -0.00053281   -0.04394885
     atom   47 type  4   force =    -0.00560498    0.00066080   -0.02999581
     atom   48 type  4   force =    -0.01219058   -0.01019229   -0.02395897
     atom   49 type  4   force =    -0.00025559    0.00081793    0.00132649
     atom   50 type  4   force =    -0.00001614   -0.00063990    0.00003439
     atom   51 type  4   force =    -0.00085640   -0.00167775   -0.00068835
     atom   52 type  4   force =    -0.00129026   -0.00104888    0.00018110
     atom   53 type  4   force =    -0.00185020    0.00086381   -0.02281760
     atom   54 type  4   force =    -0.00591473    0.00606915   -0.03471933
     atom   55 type  4   force =    -0.00119984    0.00411056   -0.03082345
     atom   56 type  4   force =    -0.00123669   -0.00895750   -0.02613257
     atom   57 type  4   force =    -0.01622304    0.00856441   -0.02690741
     atom   58 type  4   force =    -0.00884023   -0.00576904   -0.03896853
     atom   59 type  4   force =     0.01450314    0.01212796   -0.02995630
     atom   60 type  4   force =     0.00214152   -0.01029787   -0.02221302
     atom   61 type  4   force =     0.01249972   -0.00587326    0.02131971
     atom   62 type  4   force =     0.00678996   -0.00599550    0.02829069
     atom   63 type  4   force =     0.00877043   -0.00460011    0.00163760
     atom   64 type  4   force =     0.00329799   -0.00752294    0.02829654
     atom   65 type  4   force =    -0.00044287    0.00026051    0.00214155
     atom   66 type  5   force =    -0.00028039    0.00121216   -0.00326764
     atom   67 type  5   force =     0.00018011    0.00117510   -0.00241881
     atom   68 type  6   force =     0.00094394    0.00053148   -0.00048537

     Total force =     0.009170     Total SCF correction =     0.000026
     Energy error            =      1.2E-04 Ry
     Gradient error          =      3.3E-03 Ry/Bohr

     number of scf cycles    =  21
     number of bfgs steps    =  20

     energy             old  =   -5386.6136013586 Ry
     energy             new  =   -5386.6137247737 Ry

     CASE: energy            _new < energy            _old

     new trust radius        =       0.0088404605 bohr
     new conv_thr            =       0.0000000010 Ry


ATOMIC_POSITIONS (angstrom)
Ti               0.0492170557        0.0035065305       16.1558738890
Ti               0.0291331002        8.3621570543       11.5803477355    0   0   0
Ti               2.0975368417        4.1651924041       13.6995846818    0   0   0
Ti               8.3795041056        2.0957563981        9.4724378689    0   0   0
Ti               8.3750099733        6.2687152092        9.4933225157    0   0   0
Ti               4.2170671874        6.2898439467        9.4911460380    0   0   0
Ti               8.3706959315        2.0992468883       13.7196199333    0   0   0
Ti               8.3814371399        6.2587905921       13.6914936631    0   0   0
Ti               4.2074509867        6.2621252961       13.6953624844    0   0   0
Ti               2.1546798959        6.2242674733       15.8031665345
Ti               6.3228810559        6.2580559740       15.7407053378
V                8.4410092971        4.0985005829       15.7026436112
V                4.2820806168        4.0666319035       15.6486299838
V                4.1453105473        4.2119457891       11.5975026988    0   0   0
V                2.1879867013        0.0520231596        9.5054883674    0   0   0
V                2.1522427348        4.1319303501        9.4904675789    0   0   0
V                2.0919720210       -0.0034525136       13.6809547049    0   0   0
V                6.2957223951        4.1813414611       13.7896152224    0   0   0
V                4.2104512702        2.0785028673       13.6089365586    0   0   0
V                2.1048639148        6.2714192178       11.5723879270    0   0   0
V                6.3158808164        6.1438819511       11.5700667150    0   0   0
Cr               4.2839762923       -0.0313051188       15.5425684208
Cr               0.1179128009        4.1786640750       11.5195623927    0   0   0
Cr               4.1681598842        8.2577799257       11.6615352591    0   0   0
Cr               6.1999882077        0.1106418811        9.6948923906    0   0   0
Cr               6.2007452456        4.0563627707        9.3394942948    0   0   0
Cr               6.3039559766        8.3200573949       13.5345114413    0   0   0
Cr               4.2149984025        2.0754774019        9.7444374941    0   0   0
Cr               2.3116023613        2.0135943900       15.5684813338
Cr               6.2556839281        1.9741520537       15.5493750112
Cr               2.0054620409        2.1149661174       11.6192682974    0   0   0
Cr               6.3992485267        2.2488278238       11.6549867199    0   0   0
C                8.3671464633        0.0123762133        9.4921945368    0   0   0
C                8.3685510870        4.1683341954        9.4949958325    0   0   0
C                4.2233794382        0.0660683478        9.5137772640    0   0   0
C                4.2071394793        4.1170355077        9.4900603783    0   0   0
C                8.3753352139       -0.0047460034       13.6879749419    0   0   0
C                8.3555577743        4.1752016178       13.6998947017    0   0   0
C                4.2131653834        0.0054873094       13.6688163572    0   0   0
C                4.2220181648        4.1373219388       13.6924183861    0   0   0
C                2.1401279680        0.1364222373       15.8595420778
C                2.0743016719        4.1029982513       15.9579657544
C                6.1848228978        0.0951039382       15.8551953708
C                6.2183310462        4.1820022902       15.9041699138
C                2.1521326937        0.0175132539       11.5903255372    0   0   0
C                2.1078429860        4.1683083653       11.5671868517    0   0   0
C                6.2417937451        0.0188099573       11.6002801854    0   0   0
C                6.3283074126        4.1569384024       11.5682471185    0   0   0
C                8.1110652094        2.1975884827       15.8551385904
C                8.3519688959        6.3079861796       15.8835179545
C                4.1681510350        2.0752993227       15.7704225730
C                4.2036172464        6.4246169399       15.8835166603
C                0.0147673152        2.1438801594       11.5939557114    0   0   0
C                0.0200697416        6.2277703895       11.5821679336    0   0   0
C                4.2182428542        2.0594943016       11.6100232202    0   0   0
C                4.2117703951        6.2583221129       11.5919858628    0   0   0
C                2.1713130363        2.0860319016        9.4919958919    0   0   0
C                2.1164500536        6.2753611976        9.5156635851    0   0   0
C                6.2203151227        2.0809934926        9.4961719556    0   0   0
C                6.2861737462        6.2618311600        9.5257047400    0   0   0
C                2.1349207790        2.0551228178       13.6855329086    0   0   0
C                2.1043015435        6.2915359703       13.6724452320    0   0   0
C                6.2612712230        2.0678980813       13.6766563617    0   0   0
C                6.2981398968        6.2588382292       13.6653030130    0   0   0
C                2.1666742602        6.0917007429       18.0014972755
O                2.1933777999        5.9460205525       19.1347360604
O                8.3552911213        0.1008579616       17.9975693158
H                7.6693754372        0.4681123049       18.5743390126



     Writing config-only to output data dir ./tmp/hec3_CrTiV_f100_COOH_ads.save/ :
     XML data file
     NEW-OLD atomic charge density approx. for the potential

     Check: negative core charge=   -0.000005

     negative rho (up, down):  3.473E-02 0.000E+00

     total cpu time spent up to now is     8305.3 secs

     Self-consistent Calculation

     iteration #  1     ecut=    60.00 Ry     beta= 0.30
     Davidson diagonalization with overlap
     ethr =  1.00E-06,  avg # of iterations =  5.0

     Threshold (ethr) on eigenvalues was too large:
     Diagonalizing with lowered threshold

     Davidson diagonalization with overlap
     ethr =  5.66E-08,  avg # of iterations =  5.0

     negative rho (up, down):  3.473E-02 0.000E+00

     total cpu time spent up to now is     8319.2 secs

     total energy              =   -5386.61371357 Ry
     estimated scf accuracy    <       0.00036672 Ry

     iteration #  2     ecut=    60.00 Ry     beta= 0.30
     Davidson diagonalization with overlap
     ethr =  6.54E-08,  avg # of iterations =  6.0

     negative rho (up, down):  3.473E-02 0.000E+00

     total cpu time spent up to now is     8330.1 secs

     total energy              =   -5386.61337071 Ry
     estimated scf accuracy    <       0.01348821 Ry

     iteration #  3     ecut=    60.00 Ry     beta= 0.30
     Davidson diagonalization with overlap
     ethr =  6.54E-08,  avg # of iterations =  6.0

     negative rho (up, down):  3.473E-02 0.000E+00

     total cpu time spent up to now is     8339.9 secs

     total energy              =   -5386.61366279 Ry
     estimated scf accuracy    <       0.00734588 Ry

     iteration #  4     ecut=    60.00 Ry     beta= 0.30
     Davidson diagonalization with overlap
     ethr =  6.54E-08,  avg # of iterations =  5.0

     negative rho (up, down):  3.473E-02 0.000E+00

     total cpu time spent up to now is     8349.2 secs

     total energy              =   -5386.61377696 Ry
     estimated scf accuracy    <       0.00160802 Ry

     iteration #  5     ecut=    60.00 Ry     beta= 0.30
     Davidson diagonalization with overlap
     ethr =  6.54E-08,  avg # of iterations =  5.0

     negative rho (up, down):  3.473E-02 0.000E+00

     total cpu time spent up to now is     8358.9 secs

     total energy              =   -5386.61380463 Ry
     estimated scf accuracy    <       0.00075017 Ry

     iteration #  6     ecut=    60.00 Ry     beta= 0.30
     Davidson diagonalization with overlap
     ethr =  6.54E-08,  avg # of iterations =  2.0

     negative rho (up, down):  3.473E-02 0.000E+00

     total cpu time spent up to now is     8367.0 secs

     total energy              =   -5386.61381736 Ry
     estimated scf accuracy    <       0.00033242 Ry

     iteration #  7     ecut=    60.00 Ry     beta= 0.30
     Davidson diagonalization with overlap
     ethr =  5.93E-08,  avg # of iterations =  2.0

     negative rho (up, down):  3.473E-02 0.000E+00

     total cpu time spent up to now is     8374.9 secs

     total energy              =   -5386.61382462 Ry
     estimated scf accuracy    <       0.00017643 Ry

     iteration #  8     ecut=    60.00 Ry     beta= 0.30
     Davidson diagonalization with overlap
     ethr =  3.14E-08,  avg # of iterations =  2.0

     negative rho (up, down):  3.473E-02 0.000E+00

     total cpu time spent up to now is     8382.8 secs

     total energy              =   -5386.61382665 Ry
     estimated scf accuracy    <       0.00014172 Ry

     iteration #  9     ecut=    60.00 Ry     beta= 0.30
     Davidson diagonalization with overlap
     ethr =  2.53E-08,  avg # of iterations =  1.0

     negative rho (up, down):  3.473E-02 0.000E+00

     total cpu time spent up to now is     8389.9 secs

     total energy              =   -5386.61383050 Ry
     estimated scf accuracy    <       0.00006023 Ry

     iteration # 10     ecut=    60.00 Ry     beta= 0.30
     Davidson diagonalization with overlap
     ethr =  1.07E-08,  avg # of iterations =  1.0

     negative rho (up, down):  3.473E-02 0.000E+00

     total cpu time spent up to now is     8397.2 secs

     total energy              =   -5386.61383232 Ry
     estimated scf accuracy    <       0.00001320 Ry

     iteration # 11     ecut=    60.00 Ry     beta= 0.30
     Davidson diagonalization with overlap
     ethr =  2.35E-09,  avg # of iterations =  5.0

     negative rho (up, down):  3.473E-02 0.000E+00

     total cpu time spent up to now is     8406.3 secs

     total energy              =   -5386.61383185 Ry
     estimated scf accuracy    <       0.00004156 Ry

     iteration # 12     ecut=    60.00 Ry     beta= 0.30
     Davidson diagonalization with overlap
     ethr =  2.35E-09,  avg # of iterations =  5.0

     negative rho (up, down):  3.473E-02 0.000E+00

     total cpu time spent up to now is     8415.0 secs

     total energy              =   -5386.61383300 Ry
     estimated scf accuracy    <       0.00001335 Ry

     iteration # 13     ecut=    60.00 Ry     beta= 0.30
     Davidson diagonalization with overlap
     ethr =  2.35E-09,  avg # of iterations =  2.0

     negative rho (up, down):  3.473E-02 0.000E+00

     total cpu time spent up to now is     8422.6 secs

     total energy              =   -5386.61383319 Ry
     estimated scf accuracy    <       0.00002294 Ry

     iteration # 14     ecut=    60.00 Ry     beta= 0.30
     Davidson diagonalization with overlap
     ethr =  2.35E-09,  avg # of iterations =  1.0

     negative rho (up, down):  3.473E-02 0.000E+00

     total cpu time spent up to now is     8429.9 secs

     total energy              =   -5386.61383370 Ry
     estimated scf accuracy    <       0.00000598 Ry

     iteration # 15     ecut=    60.00 Ry     beta= 0.30
     Davidson diagonalization with overlap
     ethr =  1.07E-09,  avg # of iterations =  1.0

     negative rho (up, down):  3.473E-02 0.000E+00

     total cpu time spent up to now is     8437.1 secs

     total energy              =   -5386.61383376 Ry
     estimated scf accuracy    <       0.00000177 Ry

     iteration # 16     ecut=    60.00 Ry     beta= 0.30
     Davidson diagonalization with overlap
     ethr =  3.16E-10,  avg # of iterations =  5.0

     negative rho (up, down):  3.473E-02 0.000E+00

     total cpu time spent up to now is     8446.4 secs

     total energy              =   -5386.61383366 Ry
     estimated scf accuracy    <       0.00001172 Ry

     iteration # 17     ecut=    60.00 Ry     beta= 0.30
     Davidson diagonalization with overlap
     ethr =  3.16E-10,  avg # of iterations =  5.0

     negative rho (up, down):  3.473E-02 0.000E+00

     total cpu time spent up to now is     8455.5 secs

     total energy              =   -5386.61383386 Ry
     estimated scf accuracy    <       0.00000128 Ry

     iteration # 18     ecut=    60.00 Ry     beta= 0.30
     Davidson diagonalization with overlap
     ethr =  2.27E-10,  avg # of iterations =  2.0

     negative rho (up, down):  3.473E-02 0.000E+00

     total cpu time spent up to now is     8463.3 secs

     total energy              =   -5386.61383387 Ry
     estimated scf accuracy    <       0.00000138 Ry

     iteration # 19     ecut=    60.00 Ry     beta= 0.30
     Davidson diagonalization with overlap
     ethr =  2.27E-10,  avg # of iterations =  1.0

     negative rho (up, down):  3.473E-02 0.000E+00

     total cpu time spent up to now is     8470.4 secs

     total energy              =   -5386.61383389 Ry
     estimated scf accuracy    <       0.00000126 Ry

     iteration # 20     ecut=    60.00 Ry     beta= 0.30
     Davidson diagonalization with overlap
     ethr =  2.25E-10,  avg # of iterations =  1.0

     negative rho (up, down):  3.473E-02 0.000E+00

     total cpu time spent up to now is     8477.7 secs

     total energy              =   -5386.61383392 Ry
     estimated scf accuracy    <       0.00000043 Ry

     iteration # 21     ecut=    60.00 Ry     beta= 0.30
     Davidson diagonalization with overlap
     ethr =  7.71E-11,  avg # of iterations =  2.0

     negative rho (up, down):  3.473E-02 0.000E+00

     total cpu time spent up to now is     8485.6 secs

     total energy              =   -5386.61383393 Ry
     estimated scf accuracy    <       0.00000044 Ry

     iteration # 22     ecut=    60.00 Ry     beta= 0.30
     Davidson diagonalization with overlap
     ethr =  7.71E-11,  avg # of iterations =  1.0

     negative rho (up, down):  3.473E-02 0.000E+00

     total cpu time spent up to now is     8492.8 secs

     total energy              =   -5386.61383394 Ry
     estimated scf accuracy    <       0.00000024 Ry

     iteration # 23     ecut=    60.00 Ry     beta= 0.30
     Davidson diagonalization with overlap
     ethr =  4.36E-11,  avg # of iterations =  1.0

     negative rho (up, down):  3.473E-02 0.000E+00

     total cpu time spent up to now is     8500.2 secs

     total energy              =   -5386.61383393 Ry
     estimated scf accuracy    <       0.00000045 Ry

     iteration # 24     ecut=    60.00 Ry     beta= 0.30
     Davidson diagonalization with overlap
     ethr =  4.36E-11,  avg # of iterations =  1.0

     negative rho (up, down):  3.473E-02 0.000E+00

     total cpu time spent up to now is     8507.5 secs

     total energy              =   -5386.61383393 Ry
     estimated scf accuracy    <       0.00000081 Ry

     iteration # 25     ecut=    60.00 Ry     beta= 0.30
     Davidson diagonalization with overlap
     ethr =  4.36E-11,  avg # of iterations =  1.0

     negative rho (up, down):  3.473E-02 0.000E+00

     total cpu time spent up to now is     8515.0 secs

     total energy              =   -5386.61383395 Ry
     estimated scf accuracy    <       0.00000010 Ry

     iteration # 26     ecut=    60.00 Ry     beta= 0.30
     Davidson diagonalization with overlap
     ethr =  1.75E-11,  avg # of iterations =  2.0

     negative rho (up, down):  3.473E-02 0.000E+00

     total cpu time spent up to now is     8524.3 secs

     total energy              =   -5386.61383394 Ry
     estimated scf accuracy    <       0.00000037 Ry

     iteration # 27     ecut=    60.00 Ry     beta= 0.30
     Davidson diagonalization with overlap
     ethr =  1.75E-11,  avg # of iterations =  2.0

     negative rho (up, down):  3.473E-02 0.000E+00

     total cpu time spent up to now is     8534.9 secs

     total energy              =   -5386.61383395 Ry
     estimated scf accuracy    <       0.00000008 Ry

     iteration # 28     ecut=    60.00 Ry     beta= 0.30
     Davidson diagonalization with overlap
     ethr =  1.42E-11,  avg # of iterations =  1.0

     negative rho (up, down):  3.473E-02 0.000E+00

     total cpu time spent up to now is     8542.4 secs

     total energy              =   -5386.61383395 Ry
     estimated scf accuracy    <       0.00000004 Ry

     iteration # 29     ecut=    60.00 Ry     beta= 0.30
     Davidson diagonalization with overlap
     ethr =  7.81E-12,  avg # of iterations =  2.0

     negative rho (up, down):  3.473E-02 0.000E+00

     total cpu time spent up to now is     8550.2 secs

     total energy              =   -5386.61383395 Ry
     estimated scf accuracy    <       0.00000008 Ry

     iteration # 30     ecut=    60.00 Ry     beta= 0.30
     Davidson diagonalization with overlap
     ethr =  7.81E-12,  avg # of iterations =  1.0

     negative rho (up, down):  3.473E-02 0.000E+00

     total cpu time spent up to now is     8557.6 secs

     total energy              =   -5386.61383395 Ry
     estimated scf accuracy    <       0.00000004 Ry

     iteration # 31     ecut=    60.00 Ry     beta= 0.30
     Davidson diagonalization with overlap
     ethr =  6.40E-12,  avg # of iterations =  1.0

     negative rho (up, down):  3.473E-02 0.000E+00

     total cpu time spent up to now is     8564.7 secs

     total energy              =   -5386.61383395 Ry
     estimated scf accuracy    <       0.00000002 Ry

     iteration # 32     ecut=    60.00 Ry     beta= 0.30
     Davidson diagonalization with overlap
     ethr =  3.16E-12,  avg # of iterations =  1.0

     negative rho (up, down):  3.473E-02 0.000E+00

     total cpu time spent up to now is     8572.2 secs

     total energy              =   -5386.61383396 Ry
     estimated scf accuracy    <          8.5E-09 Ry

     iteration # 33     ecut=    60.00 Ry     beta= 0.30
     Davidson diagonalization with overlap
     ethr =  1.52E-12,  avg # of iterations =  1.0

     negative rho (up, down):  3.473E-02 0.000E+00

     total cpu time spent up to now is     8579.4 secs

     total energy              =   -5386.61383395 Ry
     estimated scf accuracy    <       0.00000001 Ry

     iteration # 34     ecut=    60.00 Ry     beta= 0.30
     Davidson diagonalization with overlap
     ethr =  1.52E-12,  avg # of iterations =  2.0

     negative rho (up, down):  3.473E-02 0.000E+00

     total cpu time spent up to now is     8587.1 secs

     total energy              =   -5386.61383395 Ry
     estimated scf accuracy    <       0.00000006 Ry

     iteration # 35     ecut=    60.00 Ry     beta= 0.30
     Davidson diagonalization with overlap
     ethr =  1.52E-12,  avg # of iterations =  2.0

     negative rho (up, down):  3.473E-02 0.000E+00

     total cpu time spent up to now is     8595.1 secs

     total energy              =   -5386.61383396 Ry
     estimated scf accuracy    <       0.00000001 Ry

     iteration # 36     ecut=    60.00 Ry     beta= 0.30
     Davidson diagonalization with overlap
     ethr =  1.52E-12,  avg # of iterations =  2.0

     negative rho (up, down):  3.473E-02 0.000E+00

     total cpu time spent up to now is     8602.9 secs

     total energy              =   -5386.61383395 Ry
     estimated scf accuracy    <       0.00000001 Ry

     iteration # 37     ecut=    60.00 Ry     beta= 0.30
     Davidson diagonalization with overlap
     ethr =  1.52E-12,  avg # of iterations =  1.0

     negative rho (up, down):  3.473E-02 0.000E+00

     total cpu time spent up to now is     8610.3 secs

     total energy              =   -5386.61383396 Ry
     estimated scf accuracy    <       0.00000001 Ry

     iteration # 38     ecut=    60.00 Ry     beta= 0.30
     Davidson diagonalization with overlap
     ethr =  1.52E-12,  avg # of iterations =  1.0

     negative rho (up, down):  3.473E-02 0.000E+00

     total cpu time spent up to now is     8617.4 secs

     total energy              =   -5386.61383396 Ry
     estimated scf accuracy    <          3.1E-09 Ry

     iteration # 39     ecut=    60.00 Ry     beta= 0.30
     Davidson diagonalization with overlap
     ethr =  5.58E-13,  avg # of iterations =  2.0

     negative rho (up, down):  3.473E-02 0.000E+00

     total cpu time spent up to now is     8625.5 secs

     total energy              =   -5386.61383395 Ry
     estimated scf accuracy    <          6.2E-09 Ry

     iteration # 40     ecut=    60.00 Ry     beta= 0.30
     Davidson diagonalization with overlap
     ethr =  5.58E-13,  avg # of iterations =  1.0

     negative rho (up, down):  3.473E-02 0.000E+00

     total cpu time spent up to now is     8632.6 secs

     total energy              =   -5386.61383396 Ry
     estimated scf accuracy    <          3.6E-09 Ry

     iteration # 41     ecut=    60.00 Ry     beta= 0.30
     Davidson diagonalization with overlap
     ethr =  5.58E-13,  avg # of iterations =  1.0

     negative rho (up, down):  3.473E-02 0.000E+00

     total cpu time spent up to now is     8639.6 secs

     total energy              =   -5386.61383395 Ry
     estimated scf accuracy    <          1.7E-09 Ry

     iteration # 42     ecut=    60.00 Ry     beta= 0.30
     Davidson diagonalization with overlap
     ethr =  3.10E-13,  avg # of iterations =  1.0

     negative rho (up, down):  3.473E-02 0.000E+00

     total cpu time spent up to now is     8646.7 secs

     End of self-consistent calculation

          k = 0.0000 0.0000 0.0000 ( 46961 PWs)   bands (ev):

   -69.5702 -69.5324 -69.5059 -69.4938 -69.4793 -69.4608 -69.4402 -69.4314
   -69.4294 -69.4038 -69.2307 -62.0518 -62.0346 -62.0249 -61.9980 -61.9853
   -61.9052 -61.9045 -61.8152 -61.7816 -61.7330 -54.3344 -54.2828 -54.2688
   -54.1345 -54.0248 -53.9716 -53.9645 -53.9440 -53.8518 -53.8034 -53.7748
   -41.0154 -40.9865 -40.9758 -40.9589 -40.9448 -40.9392 -40.9064 -40.9003
   -40.8819 -40.8812 -40.8768 -40.8715 -40.8624 -40.8524 -40.8410 -40.8315
   -40.8272 -40.8030 -40.7901 -40.7886 -40.7858 -40.7740 -40.7708 -40.7687
   -40.7623 -40.7481 -40.7288 -40.7243 -40.7014 -40.6862 -40.6644 -40.5936
   -40.4550 -36.0347 -35.9994 -35.9796 -35.9714 -35.9440 -35.9363 -35.9179
   -35.8918 -35.8850 -35.8675 -35.8523 -35.8384 -35.8286 -35.8180 -35.8107
   -35.8001 -35.7927 -35.7864 -35.7850 -35.7577 -35.7436 -35.7245 -35.7044
   -35.6820 -35.6738 -35.6345 -35.6209 -35.5887 -35.5433 -35.5051 -30.7951
   -30.7133 -30.6792 -30.5788 -30.5573 -30.5456 -30.5285 -30.5263 -30.5188
   -30.5165 -30.4848 -30.4524 -30.4097 -30.4043 -30.3996 -30.3784 -30.3577
   -30.3479 -30.3394 -30.3212 -30.3102 -30.2709 -30.2634 -30.2171 -30.1993
   -30.1633 -30.1469 -30.1101 -30.0945 -30.0921 -30.0467 -30.0284 -29.9950
   -21.6619 -16.2850 -10.7262  -9.6677  -9.2497  -9.1777  -9.0660  -8.9275
    -8.5947  -8.3842  -8.3491  -8.2857  -8.2265  -8.1310  -8.0835  -7.9449
    -7.9304  -7.7789  -7.7016  -7.6440  -7.5482  -7.5005  -7.4591  -7.4334
    -7.4140  -7.3724  -7.2945  -7.2874  -7.1504  -7.0300  -6.8601  -6.8023
    -6.7334  -6.5964  -6.4758  -4.2876  -4.2524  -4.0904  -3.9403  -3.8701
    -3.8084  -3.7105  -3.2050  -2.9617  -2.8452  -2.7432  -2.6648  -2.6240
    -2.5851  -2.4689  -2.4539  -2.3920  -2.3359  -2.3328  -2.1768  -2.0760
    -2.0464  -1.9505  -1.8181  -1.8036  -1.7715  -1.7346  -1.6345  -1.5503
    -1.4740  -1.4533  -1.4296  -1.4053  -1.3825  -1.3486  -1.3304  -1.3114
    -1.3007  -1.2879  -1.2682  -1.2542  -1.2245  -1.2125  -1.1803  -1.0800
    -1.0591  -1.0543  -1.0243  -0.9826  -0.9422  -0.8900  -0.8591  -0.8071
    -0.7849  -0.7509  -0.7141  -0.7004  -0.6664  -0.6444  -0.6197  -0.6073
    -0.5904  -0.5847  -0.5687  -0.5472  -0.5387  -0.5154  -0.4493  -0.3553
    -0.2755  -0.2378  -0.1862  -0.1498  -0.1273  -0.0670  -0.0149   0.0464
     0.0517   0.1056   0.1182   0.1487   0.2225   0.2673   0.3269   0.4745
     0.5005   0.5965   0.6233   0.7224   0.7870   0.8909   0.9504   1.0172
     1.0820   1.1050   1.2182   1.2596   1.3430   1.4319   1.4638   1.4816
     1.5261   1.7501   1.7681   1.7973   1.8509   1.9118   1.9705   2.1959
     2.2437   2.3313   2.6655   2.6744   2.7676   2.8388   2.9566   2.9819
     2.9965   3.0573   3.1172   3.1245   3.1905   3.2007   3.2234   3.2678
     3.2764   3.3202   3.3260   3.3570   3.3871   3.4070   3.4528   3.4745
     3.5018   3.5125   3.5691   3.5833   3.6666   3.6888   3.7251   3.7531
     3.7809   3.8540   3.8565   3.8968   3.9368   3.9714   3.9949   4.0193
     4.0720   4.0868   4.1175   4.1515   4.1702   4.2211   4.2340   4.2650
     4.2885   4.3563   4.3707   4.4312   4.4493   4.4685   4.5535   4.5843
     4.5966   4.6309   4.6676   4.6896   4.7345   4.8168   4.8578   4.8840
     4.9112

     the Fermi energy is     3.0123 ev

!    total energy              =   -5386.61383396 Ry
     estimated scf accuracy    <          8.2E-10 Ry
     smearing contrib. (-TS)   =      -0.03636512 Ry
     internal energy E=F+TS    =   -5386.57746883 Ry

     The total energy is F=E-TS. E is the sum of the following terms:
     one-electron contribution =  -55975.77426834 Ry
     hartree contribution      =   28021.15786909 Ry
     xc contribution           =    -807.49289799 Ry
     ewald contribution        =   23598.36493045 Ry
     one-center paw contrib.   =    -222.83310204 Ry

     convergence has been achieved in  42 iterations

     negative rho (up, down):  3.473E-02 0.000E+00

     Forces acting on atoms (cartesian axes, Ry/au):

     atom    1 type  1   force =     0.00100293    0.00038772    0.00013856
     atom    2 type  1   force =    -0.00392594   -0.00619879    0.00340681
     atom    3 type  1   force =    -0.01301150    0.02926881   -0.00265878
     atom    4 type  1   force =    -0.00065857   -0.01511654    0.02939205
     atom    5 type  1   force =    -0.00415257    0.01138054    0.00104763
     atom    6 type  1   force =     0.00799636   -0.00118820    0.02766799
     atom    7 type  1   force =    -0.00846358   -0.01588489   -0.02685292
     atom    8 type  1   force =     0.00946822    0.02139348   -0.01450734
     atom    9 type  1   force =    -0.01664872   -0.00313898   -0.03844497
     atom   10 type  1   force =    -0.00000878    0.00039830    0.00089477
     atom   11 type  1   force =     0.00043910    0.00172349    0.00099575
     atom   12 type  2   force =     0.00047148   -0.00005171   -0.00272044
     atom   13 type  2   force =     0.00179102    0.00025299   -0.00019146
     atom   14 type  2   force =     0.02276192   -0.00638989    0.01976457
     atom   15 type  2   force =    -0.01280469    0.00050692    0.11293952
     atom   16 type  2   force =     0.00476293    0.00064549    0.09576566
     atom   17 type  2   force =    -0.04908060   -0.01873546   -0.01890213
     atom   18 type  2   force =     0.00419453    0.02455113   -0.03052737
     atom   19 type  2   force =    -0.01545175    0.02097186   -0.03426181
     atom   20 type  2   force =    -0.00057562   -0.01134725    0.00174842
     atom   21 type  2   force =     0.00568081    0.01579284   -0.00597719
     atom   22 type  3   force =    -0.00164764   -0.00018421   -0.00003558
     atom   23 type  3   force =    -0.02263535   -0.01052756    0.00221426
     atom   24 type  3   force =     0.01905489    0.02047513   -0.01737657
     atom   25 type  3   force =     0.01549454   -0.01403596    0.06384449
     atom   26 type  3   force =    -0.00320490    0.01201072    0.12290106
     atom   27 type  3   force =     0.02947569   -0.00615156    0.00069591
     atom   28 type  3   force =    -0.00661811    0.00082899    0.04070941
     atom   29 type  3   force =     0.00022930    0.00182556   -0.00169913
     atom   30 type  3   force =     0.00052557   -0.00125105   -0.00152823
     atom   31 type  3   force =     0.00565904   -0.00222037   -0.01350307
     atom   32 type  3   force =    -0.01125986   -0.00154050   -0.01061663
     atom   33 type  4   force =    -0.00006445   -0.00804894   -0.03555264
     atom   34 type  4   force =     0.00873214    0.01237356   -0.00697481
     atom   35 type  4   force =    -0.00187905   -0.01713283   -0.02264760
     atom   36 type  4   force =     0.00069454    0.01057992   -0.03497932
     atom   37 type  4   force =     0.00191071    0.00170250    0.03341130
     atom   38 type  4   force =     0.00893695   -0.01236055    0.02675947
     atom   39 type  4   force =     0.01138595   -0.00642500    0.02311622
     atom   40 type  4   force =     0.00656970   -0.00852750    0.00630416
     atom   41 type  4   force =     0.00068391   -0.00139143    0.00203772
     atom   42 type  4   force =     0.00073841    0.00006894    0.00019547
     atom   43 type  4   force =    -0.00103579   -0.00094719   -0.00028458
     atom   44 type  4   force =    -0.00021819    0.00069549    0.00039771
     atom   45 type  4   force =     0.00776107    0.00727173   -0.04215541
     atom   46 type  4   force =     0.00434625   -0.00051640   -0.04398173
     atom   47 type  4   force =    -0.00557089    0.00070694   -0.03019553
     atom   48 type  4   force =    -0.01224379   -0.01011073   -0.02394625
     atom   49 type  4   force =    -0.00076481    0.00090685    0.00082841
     atom   50 type  4   force =    -0.00061652   -0.00085079   -0.00054708
     atom   51 type  4   force =    -0.00004804   -0.00164181   -0.00030248
     atom   52 type  4   force =    -0.00106882   -0.00091302    0.00022306
     atom   53 type  4   force =    -0.00184746    0.00084416   -0.02264808
     atom   54 type  4   force =    -0.00592060    0.00606337   -0.03462076
     atom   55 type  4   force =    -0.00123753    0.00414974   -0.03085112
     atom   56 type  4   force =    -0.00123638   -0.00890953   -0.02616675
     atom   57 type  4   force =    -0.01620956    0.00856933   -0.02688559
     atom   58 type  4   force =    -0.00884907   -0.00576899   -0.03899930
     atom   59 type  4   force =     0.01450608    0.01214017   -0.02993472
     atom   60 type  4   force =     0.00211940   -0.01030016   -0.02223652
     atom   61 type  4   force =     0.01272085   -0.00567258    0.02190786
     atom   62 type  4   force =     0.00665240   -0.00603220    0.02784408
     atom   63 type  4   force =     0.00848807   -0.00464722    0.00218496
     atom   64 type  4   force =     0.00333126   -0.00751923    0.02792303
     atom   65 type  4   force =    -0.00059390    0.00075230   -0.00239118
     atom   66 type  5   force =    -0.00018496    0.00071161    0.00108551
     atom   67 type  5   force =    -0.00012880    0.00133777   -0.00139532
     atom   68 type  6   force =     0.00128080    0.00039063   -0.00084544

     Total force =     0.007952     Total SCF correction =     0.000036
     Energy error            =      1.1E-04 Ry
     Gradient error          =      2.7E-03 Ry/Bohr

     number of scf cycles    =  22
     number of bfgs steps    =  21

     energy             old  =   -5386.6137247737 Ry
     energy             new  =   -5386.6138339562 Ry

     CASE: energy            _new < energy            _old

     new trust radius        =       0.0097245066 bohr
     new conv_thr            =       0.0000000010 Ry


ATOMIC_POSITIONS (angstrom)
Ti               0.0493027551        0.0050711797       16.1535113375
Ti               0.0291331002        8.3621570543       11.5803477355    0   0   0
Ti               2.0975368417        4.1651924041       13.6995846818    0   0   0
Ti               8.3795041056        2.0957563981        9.4724378689    0   0   0
Ti               8.3750099733        6.2687152092        9.4933225157    0   0   0
Ti               4.2170671874        6.2898439467        9.4911460380    0   0   0
Ti               8.3706959315        2.0992468883       13.7196199333    0   0   0
Ti               8.3814371399        6.2587905921       13.6914936631    0   0   0
Ti               4.2074509867        6.2621252961       13.6953624844    0   0   0
Ti               2.1543535216        6.2253014346       15.8016245626
Ti               6.3232259306        6.2588373786       15.7397712685
V                8.4418718119        4.0992040796       15.7018880502
V                4.2840010719        4.0675981365       15.6483203620
V                4.1453105473        4.2119457891       11.5975026988    0   0   0
V                2.1879867013        0.0520231596        9.5054883674    0   0   0
V                2.1522427348        4.1319303501        9.4904675789    0   0   0
V                2.0919720210       -0.0034525136       13.6809547049    0   0   0
V                6.2957223951        4.1813414611       13.7896152224    0   0   0
V                4.2104512702        2.0785028673       13.6089365586    0   0   0
V                2.1048639148        6.2714192178       11.5723879270    0   0   0
V                6.3158808164        6.1438819511       11.5700667150    0   0   0
Cr               4.2813302060       -0.0335984354       15.5429996631
Cr               0.1179128009        4.1786640750       11.5195623927    0   0   0
Cr               4.1681598842        8.2577799257       11.6615352591    0   0   0
Cr               6.1999882077        0.1106418811        9.6948923906    0   0   0
Cr               6.2007452456        4.0563627707        9.3394942948    0   0   0
Cr               6.3039559766        8.3200573949       13.5345114413    0   0   0
Cr               4.2149984025        2.0754774019        9.7444374941    0   0   0
Cr               2.3142551380        2.0155868784       15.5690545338
Cr               6.2536798863        1.9715690271       15.5495368975
Cr               2.0054620409        2.1149661174       11.6192682974    0   0   0
Cr               6.3992485267        2.2488278238       11.6549867199    0   0   0
C                8.3671464633        0.0123762133        9.4921945368    0   0   0
C                8.3685510870        4.1683341954        9.4949958325    0   0   0
C                4.2233794382        0.0660683478        9.5137772640    0   0   0
C                4.2071394793        4.1170355077        9.4900603783    0   0   0
C                8.3753352139       -0.0047460034       13.6879749419    0   0   0
C                8.3555577743        4.1752016178       13.6998947017    0   0   0
C                4.2131653834        0.0054873094       13.6688163572    0   0   0
C                4.2220181648        4.1373219388       13.6924183861    0   0   0
C                2.1415681012        0.1352642127       15.8608308888
C                2.0753097001        4.1017996741       15.9579279199
C                6.1848142437        0.0929903445       15.8527802787
C                6.2180187548        4.1825399190       15.9044421860
C                2.1521326937        0.0175132539       11.5903255372    0   0   0
C                2.1078429860        4.1683083653       11.5671868517    0   0   0
C                6.2417937451        0.0188099573       11.6002801854    0   0   0
C                6.3283074126        4.1569384024       11.5682471185    0   0   0
C                8.1073661941        2.1998300366       15.8579267631
C                8.3524310756        6.3081312144       15.8850199206
C                4.1681798548        2.0734090960       15.7700365076
C                4.2034397792        6.4212959931       15.8829217203
C                0.0147673152        2.1438801594       11.5939557114    0   0   0
C                0.0200697416        6.2277703895       11.5821679336    0   0   0
C                4.2182428542        2.0594943016       11.6100232202    0   0   0
C                4.2117703951        6.2583221129       11.5919858628    0   0   0
C                2.1713130363        2.0860319016        9.4919958919    0   0   0
C                2.1164500536        6.2753611976        9.5156635851    0   0   0
C                6.2203151227        2.0809934926        9.4961719556    0   0   0
C                6.2861737462        6.2618311600        9.5257047400    0   0   0
C                2.1349207790        2.0551228178       13.6855329086    0   0   0
C                2.1043015435        6.2915359703       13.6724452320    0   0   0
C                6.2612712230        2.0678980813       13.6766563617    0   0   0
C                6.2981398968        6.2588382292       13.6653030130    0   0   0
C                2.1662877636        6.0933124543       17.9999144566
O                2.1925247824        5.9478695898       19.1327487224
O                8.3556172158        0.1036423896       17.9940467580
H                7.6713667604        0.4692353542       18.5737149858



     Writing config-only to output data dir ./tmp/hec3_CrTiV_f100_COOH_ads.save/ :
     XML data file
     NEW-OLD atomic charge density approx. for the potential

     Check: negative core charge=   -0.000005

     negative rho (up, down):  3.472E-02 0.000E+00

     total cpu time spent up to now is     8658.8 secs

     Self-consistent Calculation

     iteration #  1     ecut=    60.00 Ry     beta= 0.30
     Davidson diagonalization with overlap
     ethr =  1.00E-06,  avg # of iterations =  4.0

     Threshold (ethr) on eigenvalues was too large:
     Diagonalizing with lowered threshold

     Davidson diagonalization with overlap
     ethr =  4.22E-08,  avg # of iterations =  5.0

     negative rho (up, down):  3.471E-02 0.000E+00

     total cpu time spent up to now is     8672.0 secs

     total energy              =   -5386.61383652 Ry
     estimated scf accuracy    <       0.00025571 Ry

     iteration #  2     ecut=    60.00 Ry     beta= 0.30
     Davidson diagonalization with overlap
     ethr =  4.56E-08,  avg # of iterations =  6.0

     negative rho (up, down):  3.471E-02 0.000E+00

     total cpu time spent up to now is     8684.1 secs

     total energy              =   -5386.61360955 Ry
     estimated scf accuracy    <       0.00862817 Ry

     iteration #  3     ecut=    60.00 Ry     beta= 0.30
     Davidson diagonalization with overlap
     ethr =  4.56E-08,  avg # of iterations =  6.0

     negative rho (up, down):  3.471E-02 0.000E+00

     total cpu time spent up to now is     8695.3 secs

     total energy              =   -5386.61385047 Ry
     estimated scf accuracy    <       0.00189669 Ry

     iteration #  4     ecut=    60.00 Ry     beta= 0.30
     Davidson diagonalization with overlap
     ethr =  4.56E-08,  avg # of iterations =  5.0

     negative rho (up, down):  3.472E-02 0.000E+00

     total cpu time spent up to now is     8704.7 secs

     total energy              =   -5386.61388228 Ry
     estimated scf accuracy    <       0.00103930 Ry

     iteration #  5     ecut=    60.00 Ry     beta= 0.30
     Davidson diagonalization with overlap
     ethr =  4.56E-08,  avg # of iterations =  5.0

     negative rho (up, down):  3.472E-02 0.000E+00

     total cpu time spent up to now is     8713.7 secs

     total energy              =   -5386.61388937 Ry
     estimated scf accuracy    <       0.00121699 Ry

     iteration #  6     ecut=    60.00 Ry     beta= 0.30
     Davidson diagonalization with overlap
     ethr =  4.56E-08,  avg # of iterations =  2.0

     negative rho (up, down):  3.472E-02 0.000E+00

     total cpu time spent up to now is     8721.4 secs

     total energy              =   -5386.61390574 Ry
     estimated scf accuracy    <       0.00026660 Ry

     iteration #  7     ecut=    60.00 Ry     beta= 0.30
     Davidson diagonalization with overlap
     ethr =  4.56E-08,  avg # of iterations =  1.0

     negative rho (up, down):  3.472E-02 0.000E+00

     total cpu time spent up to now is     8728.6 secs

     total energy              =   -5386.61391130 Ry
     estimated scf accuracy    <       0.00011910 Ry

     iteration #  8     ecut=    60.00 Ry     beta= 0.30
     Davidson diagonalization with overlap
     ethr =  2.12E-08,  avg # of iterations =  2.0

     negative rho (up, down):  3.472E-02 0.000E+00

     total cpu time spent up to now is     8736.7 secs

     total energy              =   -5386.61391218 Ry
     estimated scf accuracy    <       0.00012111 Ry

     iteration #  9     ecut=    60.00 Ry     beta= 0.30
     Davidson diagonalization with overlap
     ethr =  2.12E-08,  avg # of iterations =  1.0

     negative rho (up, down):  3.472E-02 0.000E+00

     total cpu time spent up to now is     8744.0 secs

     total energy              =   -5386.61391566 Ry
     estimated scf accuracy    <       0.00004034 Ry

     iteration # 10     ecut=    60.00 Ry     beta= 0.30
     Davidson diagonalization with overlap
     ethr =  7.19E-09,  avg # of iterations =  2.0

     negative rho (up, down):  3.472E-02 0.000E+00

     total cpu time spent up to now is     8752.2 secs

     total energy              =   -5386.61391699 Ry
     estimated scf accuracy    <       0.00000927 Ry

     iteration # 11     ecut=    60.00 Ry     beta= 0.30
     Davidson diagonalization with overlap
     ethr =  1.65E-09,  avg # of iterations =  5.0

     negative rho (up, down):  3.472E-02 0.000E+00

     total cpu time spent up to now is     8761.7 secs

     total energy              =   -5386.61391667 Ry
     estimated scf accuracy    <       0.00002823 Ry

     iteration # 12     ecut=    60.00 Ry     beta= 0.30
     Davidson diagonalization with overlap
     ethr =  1.65E-09,  avg # of iterations =  5.0

     negative rho (up, down):  3.472E-02 0.000E+00

     total cpu time spent up to now is     8771.0 secs

     total energy              =   -5386.61391760 Ry
     estimated scf accuracy    <       0.00000750 Ry

     iteration # 13     ecut=    60.00 Ry     beta= 0.30
     Davidson diagonalization with overlap
     ethr =  1.34E-09,  avg # of iterations =  2.0

     negative rho (up, down):  3.472E-02 0.000E+00

     total cpu time spent up to now is     8779.0 secs

     total energy              =   -5386.61391790 Ry
     estimated scf accuracy    <       0.00000334 Ry

     iteration # 14     ecut=    60.00 Ry     beta= 0.30
     Davidson diagonalization with overlap
     ethr =  5.96E-10,  avg # of iterations =  2.0

     negative rho (up, down):  3.472E-02 0.000E+00

     total cpu time spent up to now is     8786.9 secs

     total energy              =   -5386.61391799 Ry
     estimated scf accuracy    <       0.00000199 Ry

     iteration # 15     ecut=    60.00 Ry     beta= 0.30
     Davidson diagonalization with overlap
     ethr =  3.55E-10,  avg # of iterations =  2.0

     negative rho (up, down):  3.472E-02 0.000E+00

     total cpu time spent up to now is     8794.6 secs

     total energy              =   -5386.61391797 Ry
     estimated scf accuracy    <       0.00000381 Ry

     iteration # 16     ecut=    60.00 Ry     beta= 0.30
     Davidson diagonalization with overlap
     ethr =  3.55E-10,  avg # of iterations =  2.0

     negative rho (up, down):  3.472E-02 0.000E+00

     total cpu time spent up to now is     8802.3 secs

     total energy              =   -5386.61391796 Ry
     estimated scf accuracy    <       0.00000734 Ry

     iteration # 17     ecut=    60.00 Ry     beta= 0.30
     Davidson diagonalization with overlap
     ethr =  3.55E-10,  avg # of iterations =  1.0

     negative rho (up, down):  3.472E-02 0.000E+00

     total cpu time spent up to now is     8809.7 secs

     total energy              =   -5386.61391806 Ry
     estimated scf accuracy    <       0.00000191 Ry

     iteration # 18     ecut=    60.00 Ry     beta= 0.30
     Davidson diagonalization with overlap
     ethr =  3.41E-10,  avg # of iterations =  1.0

     negative rho (up, down):  3.472E-02 0.000E+00

     total cpu time spent up to now is     8817.2 secs

     total energy              =   -5386.61391809 Ry
     estimated scf accuracy    <       0.00000088 Ry

     iteration # 19     ecut=    60.00 Ry     beta= 0.30
     Davidson diagonalization with overlap
     ethr =  1.56E-10,  avg # of iterations =  1.0

     negative rho (up, down):  3.472E-02 0.000E+00

     total cpu time spent up to now is     8824.3 secs

     total energy              =   -5386.61391810 Ry
     estimated scf accuracy    <       0.00000072 Ry

     iteration # 20     ecut=    60.00 Ry     beta= 0.30
     Davidson diagonalization with overlap
     ethr =  1.29E-10,  avg # of iterations =  1.0

     negative rho (up, down):  3.472E-02 0.000E+00

     total cpu time spent up to now is     8831.5 secs

     total energy              =   -5386.61391812 Ry
     estimated scf accuracy    <       0.00000024 Ry

     iteration # 21     ecut=    60.00 Ry     beta= 0.30
     Davidson diagonalization with overlap
     ethr =  4.37E-11,  avg # of iterations =  2.0

     negative rho (up, down):  3.472E-02 0.000E+00

     total cpu time spent up to now is     8839.2 secs

     total energy              =   -5386.61391812 Ry
     estimated scf accuracy    <       0.00000049 Ry

     iteration # 22     ecut=    60.00 Ry     beta= 0.30
     Davidson diagonalization with overlap
     ethr =  4.37E-11,  avg # of iterations =  1.0

     negative rho (up, down):  3.472E-02 0.000E+00

     total cpu time spent up to now is     8846.3 secs

     total energy              =   -5386.61391813 Ry
     estimated scf accuracy    <       0.00000015 Ry

     iteration # 23     ecut=    60.00 Ry     beta= 0.30
     Davidson diagonalization with overlap
     ethr =  2.73E-11,  avg # of iterations =  2.0

     negative rho (up, down):  3.472E-02 0.000E+00

     total cpu time spent up to now is     8854.2 secs

     total energy              =   -5386.61391813 Ry
     estimated scf accuracy    <       0.00000014 Ry

     iteration # 24     ecut=    60.00 Ry     beta= 0.30
     Davidson diagonalization with overlap
     ethr =  2.50E-11,  avg # of iterations =  1.0

     negative rho (up, down):  3.472E-02 0.000E+00

     total cpu time spent up to now is     8861.4 secs

     total energy              =   -5386.61391814 Ry
     estimated scf accuracy    <       0.00000011 Ry

     iteration # 25     ecut=    60.00 Ry     beta= 0.30
     Davidson diagonalization with overlap
     ethr =  1.99E-11,  avg # of iterations =  1.0

     negative rho (up, down):  3.472E-02 0.000E+00

     total cpu time spent up to now is     8868.4 secs

     total energy              =   -5386.61391814 Ry
     estimated scf accuracy    <       0.00000014 Ry

     iteration # 26     ecut=    60.00 Ry     beta= 0.30
     Davidson diagonalization with overlap
     ethr =  1.99E-11,  avg # of iterations =  2.0

     negative rho (up, down):  3.472E-02 0.000E+00

     total cpu time spent up to now is     8876.3 secs

     total energy              =   -5386.61391813 Ry
     estimated scf accuracy    <       0.00000033 Ry

     iteration # 27     ecut=    60.00 Ry     beta= 0.30
     Davidson diagonalization with overlap
     ethr =  1.99E-11,  avg # of iterations =  1.0

     negative rho (up, down):  3.472E-02 0.000E+00

     total cpu time spent up to now is     8883.4 secs

     total energy              =   -5386.61391814 Ry
     estimated scf accuracy    <       0.00000007 Ry

     iteration # 28     ecut=    60.00 Ry     beta= 0.30
     Davidson diagonalization with overlap
     ethr =  1.28E-11,  avg # of iterations =  1.0

     negative rho (up, down):  3.472E-02 0.000E+00

     total cpu time spent up to now is     8891.0 secs

     total energy              =   -5386.61391814 Ry
     estimated scf accuracy    <       0.00000003 Ry

     iteration # 29     ecut=    60.00 Ry     beta= 0.30
     Davidson diagonalization with overlap
     ethr =  5.74E-12,  avg # of iterations =  2.0

     negative rho (up, down):  3.472E-02 0.000E+00

     total cpu time spent up to now is     8898.9 secs

     total energy              =   -5386.61391814 Ry
     estimated scf accuracy    <       0.00000004 Ry

     iteration # 30     ecut=    60.00 Ry     beta= 0.30
     Davidson diagonalization with overlap
     ethr =  5.74E-12,  avg # of iterations =  1.0

     negative rho (up, down):  3.472E-02 0.000E+00

     total cpu time spent up to now is     8906.0 secs

     total energy              =   -5386.61391814 Ry
     estimated scf accuracy    <       0.00000002 Ry

     iteration # 31     ecut=    60.00 Ry     beta= 0.30
     Davidson diagonalization with overlap
     ethr =  2.81E-12,  avg # of iterations =  2.0

     negative rho (up, down):  3.472E-02 0.000E+00

     total cpu time spent up to now is     8913.8 secs

     total energy              =   -5386.61391814 Ry
     estimated scf accuracy    <       0.00000002 Ry

     iteration # 32     ecut=    60.00 Ry     beta= 0.30
     Davidson diagonalization with overlap
     ethr =  2.81E-12,  avg # of iterations =  1.0

     negative rho (up, down):  3.472E-02 0.000E+00

     total cpu time spent up to now is     8921.0 secs

     total energy              =   -5386.61391814 Ry
     estimated scf accuracy    <          9.0E-09 Ry

     iteration # 33     ecut=    60.00 Ry     beta= 0.30
     Davidson diagonalization with overlap
     ethr =  1.61E-12,  avg # of iterations =  1.0

     negative rho (up, down):  3.472E-02 0.000E+00

     total cpu time spent up to now is     8928.3 secs

     total energy              =   -5386.61391814 Ry
     estimated scf accuracy    <          6.6E-09 Ry

     iteration # 34     ecut=    60.00 Ry     beta= 0.30
     Davidson diagonalization with overlap
     ethr =  1.17E-12,  avg # of iterations =  2.0

     negative rho (up, down):  3.472E-02 0.000E+00

     total cpu time spent up to now is     8936.3 secs

     total energy              =   -5386.61391814 Ry
     estimated scf accuracy    <       0.00000001 Ry

     iteration # 35     ecut=    60.00 Ry     beta= 0.30
     Davidson diagonalization with overlap
     ethr =  1.17E-12,  avg # of iterations =  1.0

     negative rho (up, down):  3.472E-02 0.000E+00

     total cpu time spent up to now is     8943.2 secs

     total energy              =   -5386.61391814 Ry
     estimated scf accuracy    <          9.2E-09 Ry

     iteration # 36     ecut=    60.00 Ry     beta= 0.30
     Davidson diagonalization with overlap
     ethr =  1.17E-12,  avg # of iterations =  2.0

     negative rho (up, down):  3.472E-02 0.000E+00

     total cpu time spent up to now is     8950.9 secs

     total energy              =   -5386.61391814 Ry
     estimated scf accuracy    <       0.00000001 Ry

     iteration # 37     ecut=    60.00 Ry     beta= 0.30
     Davidson diagonalization with overlap
     ethr =  1.17E-12,  avg # of iterations =  1.0

     negative rho (up, down):  3.472E-02 0.000E+00

     total cpu time spent up to now is     8958.4 secs

     total energy              =   -5386.61391814 Ry
     estimated scf accuracy    <          6.8E-09 Ry

     iteration # 38     ecut=    60.00 Ry     beta= 0.30
     Davidson diagonalization with overlap
     ethr =  1.17E-12,  avg # of iterations =  1.0

     negative rho (up, down):  3.472E-02 0.000E+00

     total cpu time spent up to now is     8965.7 secs

     total energy              =   -5386.61391814 Ry
     estimated scf accuracy    <          3.5E-09 Ry

     iteration # 39     ecut=    60.00 Ry     beta= 0.30
     Davidson diagonalization with overlap
     ethr =  6.31E-13,  avg # of iterations =  1.0

     negative rho (up, down):  3.472E-02 0.000E+00

     total cpu time spent up to now is     8973.1 secs

     total energy              =   -5386.61391814 Ry
     estimated scf accuracy    <          2.4E-09 Ry

     iteration # 40     ecut=    60.00 Ry     beta= 0.30
     Davidson diagonalization with overlap
     ethr =  4.34E-13,  avg # of iterations =  2.0

     negative rho (up, down):  3.472E-02 0.000E+00

     total cpu time spent up to now is     8980.9 secs

     total energy              =   -5386.61391814 Ry
     estimated scf accuracy    <          1.9E-09 Ry

     iteration # 41     ecut=    60.00 Ry     beta= 0.30
     Davidson diagonalization with overlap
     ethr =  3.39E-13,  avg # of iterations =  1.0

     negative rho (up, down):  3.472E-02 0.000E+00

     total cpu time spent up to now is     8988.4 secs

     total energy              =   -5386.61391814 Ry
     estimated scf accuracy    <          1.4E-09 Ry

     iteration # 42     ecut=    60.00 Ry     beta= 0.30
     Davidson diagonalization with overlap
     ethr =  2.45E-13,  avg # of iterations =  1.0

     negative rho (up, down):  3.472E-02 0.000E+00

     total cpu time spent up to now is     8995.8 secs

     End of self-consistent calculation

          k = 0.0000 0.0000 0.0000 ( 46961 PWs)   bands (ev):

   -69.5699 -69.5313 -69.5049 -69.4927 -69.4790 -69.4600 -69.4393 -69.4305
   -69.4274 -69.4018 -69.2298 -62.0507 -62.0334 -62.0240 -61.9977 -61.9847
   -61.9044 -61.9036 -61.8147 -61.7811 -61.7298 -54.3336 -54.2821 -54.2680
   -54.1339 -54.0259 -53.9701 -53.9639 -53.9433 -53.8493 -53.8018 -53.7742
   -41.0145 -40.9857 -40.9753 -40.9582 -40.9437 -40.9383 -40.9058 -40.8994
   -40.8810 -40.8797 -40.8753 -40.8705 -40.8614 -40.8502 -40.8400 -40.8306
   -40.8263 -40.8020 -40.7892 -40.7871 -40.7848 -40.7735 -40.7698 -40.7679
   -40.7613 -40.7464 -40.7280 -40.7234 -40.7000 -40.6848 -40.6636 -40.5927
   -40.4543 -36.0340 -35.9986 -35.9782 -35.9703 -35.9430 -35.9356 -35.9170
   -35.8914 -35.8842 -35.8670 -35.8515 -35.8376 -35.8277 -35.8171 -35.8102
   -35.7999 -35.7920 -35.7860 -35.7842 -35.7568 -35.7429 -35.7238 -35.7041
   -35.6811 -35.6725 -35.6308 -35.6201 -35.5862 -35.5415 -35.5039 -30.7952
   -30.7127 -30.6785 -30.5776 -30.5566 -30.5451 -30.5277 -30.5255 -30.5180
   -30.5158 -30.4846 -30.4520 -30.4098 -30.4037 -30.3990 -30.3775 -30.3571
   -30.3472 -30.3395 -30.3198 -30.3096 -30.2702 -30.2619 -30.2165 -30.1988
   -30.1627 -30.1450 -30.1094 -30.0927 -30.0907 -30.0451 -30.0271 -29.9938
   -21.6683 -16.2876 -10.7255  -9.6673  -9.2488  -9.1769  -9.0653  -8.9267
    -8.5943  -8.3835  -8.3488  -8.2848  -8.2257  -8.1302  -8.0832  -7.9441
    -7.9296  -7.7784  -7.7010  -7.6435  -7.5475  -7.5008  -7.4590  -7.4327
    -7.4134  -7.3717  -7.2939  -7.2872  -7.1509  -7.0263  -6.8593  -6.8017
    -6.7326  -6.5961  -6.4745  -4.2915  -4.2560  -4.0962  -3.9394  -3.8695
    -3.8080  -3.7101  -3.2050  -2.9608  -2.8446  -2.7437  -2.6632  -2.6227
    -2.5842  -2.4681  -2.4530  -2.3911  -2.3350  -2.3318  -2.1764  -2.0753
    -2.0457  -1.9498  -1.8171  -1.8029  -1.7707  -1.7340  -1.6341  -1.5499
    -1.4721  -1.4535  -1.4289  -1.4047  -1.3823  -1.3481  -1.3298  -1.3104
    -1.3000  -1.2872  -1.2672  -1.2536  -1.2238  -1.2113  -1.1795  -1.0787
    -1.0583  -1.0537  -1.0239  -0.9822  -0.9417  -0.8889  -0.8583  -0.8075
    -0.7844  -0.7512  -0.7128  -0.6999  -0.6666  -0.6448  -0.6192  -0.6060
    -0.5900  -0.5831  -0.5679  -0.5472  -0.5385  -0.5148  -0.4477  -0.3546
    -0.2753  -0.2384  -0.1858  -0.1488  -0.1274  -0.0661  -0.0129   0.0464
     0.0524   0.1067   0.1191   0.1491   0.2234   0.2669   0.3295   0.4758
     0.5025   0.5967   0.6248   0.7230   0.7876   0.8919   0.9503   1.0182
     1.0819   1.1075   1.2191   1.2606   1.3437   1.4324   1.4643   1.4818
     1.5273   1.7507   1.7689   1.7976   1.8512   1.9123   1.9707   2.1950
     2.2448   2.3313   2.6670   2.6757   2.7688   2.8395   2.9581   2.9823
     2.9972   3.0579   3.1186   3.1258   3.1914   3.2005   3.2241   3.2691
     3.2778   3.3229   3.3264   3.3576   3.3881   3.4078   3.4531   3.4742
     3.5027   3.5139   3.5702   3.5838   3.6677   3.6898   3.7249   3.7542
     3.7818   3.8552   3.8570   3.8968   3.9388   3.9725   3.9954   4.0203
     4.0726   4.0878   4.1190   4.1524   4.1706   4.2221   4.2348   4.2660
     4.2903   4.3576   4.3722   4.4326   4.4511   4.4696   4.5553   4.5849
     4.5980   4.6311   4.6686   4.6903   4.7363   4.8178   4.8589   4.8856
     4.9115

     the Fermi energy is     3.0133 ev

!    total energy              =   -5386.61391814 Ry
     estimated scf accuracy    <          9.5E-10 Ry
     smearing contrib. (-TS)   =      -0.03639844 Ry
     internal energy E=F+TS    =   -5386.57751970 Ry

     The total energy is F=E-TS. E is the sum of the following terms:
     one-electron contribution =  -55980.36891140 Ry
     hartree contribution      =   28023.47060693 Ry
     xc contribution           =    -807.49571867 Ry
     ewald contribution        =   23600.64958980 Ry
     one-center paw contrib.   =    -222.83308636 Ry

     convergence has been achieved in  42 iterations

     negative rho (up, down):  3.472E-02 0.000E+00

     Forces acting on atoms (cartesian axes, Ry/au):

     atom    1 type  1   force =     0.00141214   -0.00014199   -0.00016760
     atom    2 type  1   force =    -0.00398756   -0.00618381    0.00341025
     atom    3 type  1   force =    -0.01295734    0.02895252   -0.00277929
     atom    4 type  1   force =    -0.00066575   -0.01512284    0.02941750
     atom    5 type  1   force =    -0.00414232    0.01138140    0.00109326
     atom    6 type  1   force =     0.00800973   -0.00119080    0.02768115
     atom    7 type  1   force =    -0.00868108   -0.01583005   -0.02642844
     atom    8 type  1   force =     0.00954861    0.02140198   -0.01489054
     atom    9 type  1   force =    -0.01656187   -0.00341842   -0.03892436
     atom   10 type  1   force =     0.00005990   -0.00016787    0.00155348
     atom   11 type  1   force =     0.00057156    0.00141870    0.00131765
     atom   12 type  2   force =     0.00033909    0.00036697   -0.00207539
     atom   13 type  2   force =     0.00117492    0.00076526    0.00015567
     atom   14 type  2   force =     0.02275256   -0.00638995    0.01974213
     atom   15 type  2   force =    -0.01284741    0.00050993    0.11292364
     atom   16 type  2   force =     0.00476858    0.00064492    0.09576375
     atom   17 type  2   force =    -0.04893726   -0.01852530   -0.01855700
     atom   18 type  2   force =     0.00433519    0.02433474   -0.03053451
     atom   19 type  2   force =    -0.01551374    0.02081296   -0.03449791
     atom   20 type  2   force =    -0.00052932   -0.01134472    0.00181355
     atom   21 type  2   force =     0.00567138    0.01577959   -0.00595944
     atom   22 type  3   force =    -0.00100893    0.00020268   -0.00050215
     atom   23 type  3   force =    -0.02266610   -0.01048698    0.00233518
     atom   24 type  3   force =     0.01904780    0.02044860   -0.01730903
     atom   25 type  3   force =     0.01549253   -0.01406349    0.06387779
     atom   26 type  3   force =    -0.00317848    0.01197371    0.12287202
     atom   27 type  3   force =     0.02927606   -0.00606783    0.00084970
     atom   28 type  3   force =    -0.00659421    0.00082908    0.04070469
     atom   29 type  3   force =    -0.00040614    0.00134073   -0.00189237
     atom   30 type  3   force =     0.00060055   -0.00144532   -0.00197750
     atom   31 type  3   force =     0.00573385   -0.00229614   -0.01359324
     atom   32 type  3   force =    -0.01131566   -0.00164245   -0.01074492
     atom   33 type  4   force =    -0.00005428   -0.00805142   -0.03559285
     atom   34 type  4   force =     0.00871749    0.01236239   -0.00702417
     atom   35 type  4   force =    -0.00188482   -0.01714070   -0.02264641
     atom   36 type  4   force =     0.00068862    0.01059482   -0.03495143
     atom   37 type  4   force =     0.00205256    0.00190438    0.03364809
     atom   38 type  4   force =     0.00896359   -0.01235360    0.02670718
     atom   39 type  4   force =     0.01119097   -0.00665489    0.02324958
     atom   40 type  4   force =     0.00673128   -0.00843296    0.00618932
     atom   41 type  4   force =     0.00044406   -0.00075385    0.00163123
     atom   42 type  4   force =     0.00038334   -0.00008936    0.00001619
     atom   43 type  4   force =    -0.00114180   -0.00043730    0.00009156
     atom   44 type  4   force =    -0.00001498    0.00054924    0.00012488
     atom   45 type  4   force =     0.00781579    0.00727601   -0.04214859
     atom   46 type  4   force =     0.00437591   -0.00050178   -0.04401365
     atom   47 type  4   force =    -0.00554257    0.00074623   -0.03038463
     atom   48 type  4   force =    -0.01229736   -0.01005329   -0.02394127
     atom   49 type  4   force =    -0.00097764    0.00080478    0.00034883
     atom   50 type  4   force =    -0.00080607   -0.00084579   -0.00089528
     atom   51 type  4   force =     0.00049450   -0.00133171   -0.00016506
     atom   52 type  4   force =    -0.00068574   -0.00075081    0.00017937
     atom   53 type  4   force =    -0.00183303    0.00083889   -0.02246348
     atom   54 type  4   force =    -0.00592004    0.00607531   -0.03452910
     atom   55 type  4   force =    -0.00125979    0.00418652   -0.03086234
     atom   56 type  4   force =    -0.00123392   -0.00886623   -0.02620188
     atom   57 type  4   force =    -0.01620307    0.00856814   -0.02685535
     atom   58 type  4   force =    -0.00885132   -0.00577461   -0.03900976
     atom   59 type  4   force =     0.01451328    0.01214568   -0.02991073
     atom   60 type  4   force =     0.00209934   -0.01030418   -0.02224376
     atom   61 type  4   force =     0.01290472   -0.00547053    0.02213600
     atom   62 type  4   force =     0.00656112   -0.00603958    0.02748525
     atom   63 type  4   force =     0.00827635   -0.00471453    0.00227644
     atom   64 type  4   force =     0.00337376   -0.00748644    0.02771802
     atom   65 type  4   force =    -0.00068224    0.00089339   -0.00418974
     atom   66 type  5   force =    -0.00014330    0.00052179    0.00297775
     atom   67 type  5   force =    -0.00008556    0.00129125   -0.00057177
     atom   68 type  6   force =     0.00122957    0.00044896   -0.00085615

     Total force =     0.008553     Total SCF correction =     0.000026
     Energy error            =      8.4E-05 Ry
     Gradient error          =      4.2E-03 Ry/Bohr

     bfgs converged in  23 scf cycles and  22 bfgs steps
     (criteria: energy <  1.0E-04 Ry, force <  1.0E-02 Ry/Bohr)

     End of BFGS Geometry Optimization

     Final energy             =   -5386.6139181435 Ry

     File ./tmp/hec3_CrTiV_f100_COOH_ads.bfgs deleted, as requested
Begin final coordinates

ATOMIC_POSITIONS (angstrom)
Ti               0.0493027551        0.0050711797       16.1535113375
Ti               0.0291331002        8.3621570543       11.5803477355    0   0   0
Ti               2.0975368417        4.1651924041       13.6995846818    0   0   0
Ti               8.3795041056        2.0957563981        9.4724378689    0   0   0
Ti               8.3750099733        6.2687152092        9.4933225157    0   0   0
Ti               4.2170671874        6.2898439467        9.4911460380    0   0   0
Ti               8.3706959315        2.0992468883       13.7196199333    0   0   0
Ti               8.3814371399        6.2587905921       13.6914936631    0   0   0
Ti               4.2074509867        6.2621252961       13.6953624844    0   0   0
Ti               2.1543535216        6.2253014346       15.8016245626
Ti               6.3232259306        6.2588373786       15.7397712685
V                8.4418718119        4.0992040796       15.7018880502
V                4.2840010719        4.0675981365       15.6483203620
V                4.1453105473        4.2119457891       11.5975026988    0   0   0
V                2.1879867013        0.0520231596        9.5054883674    0   0   0
V                2.1522427348        4.1319303501        9.4904675789    0   0   0
V                2.0919720210       -0.0034525136       13.6809547049    0   0   0
V                6.2957223951        4.1813414611       13.7896152224    0   0   0
V                4.2104512702        2.0785028673       13.6089365586    0   0   0
V                2.1048639148        6.2714192178       11.5723879270    0   0   0
V                6.3158808164        6.1438819511       11.5700667150    0   0   0
Cr               4.2813302060       -0.0335984354       15.5429996631
Cr               0.1179128009        4.1786640750       11.5195623927    0   0   0
Cr               4.1681598842        8.2577799257       11.6615352591    0   0   0
Cr               6.1999882077        0.1106418811        9.6948923906    0   0   0
Cr               6.2007452456        4.0563627707        9.3394942948    0   0   0
Cr               6.3039559766        8.3200573949       13.5345114413    0   0   0
Cr               4.2149984025        2.0754774019        9.7444374941    0   0   0
Cr               2.3142551380        2.0155868784       15.5690545338
Cr               6.2536798863        1.9715690271       15.5495368975
Cr               2.0054620409        2.1149661174       11.6192682974    0   0   0
Cr               6.3992485267        2.2488278238       11.6549867199    0   0   0
C                8.3671464633        0.0123762133        9.4921945368    0   0   0
C                8.3685510870        4.1683341954        9.4949958325    0   0   0
C                4.2233794382        0.0660683478        9.5137772640    0   0   0
C                4.2071394793        4.1170355077        9.4900603783    0   0   0
C                8.3753352139       -0.0047460034       13.6879749419    0   0   0
C                8.3555577743        4.1752016178       13.6998947017    0   0   0
C                4.2131653834        0.0054873094       13.6688163572    0   0   0
C                4.2220181648        4.1373219388       13.6924183861    0   0   0
C                2.1415681012        0.1352642127       15.8608308888
C                2.0753097001        4.1017996741       15.9579279199
C                6.1848142437        0.0929903445       15.8527802787
C                6.2180187548        4.1825399190       15.9044421860
C                2.1521326937        0.0175132539       11.5903255372    0   0   0
C                2.1078429860        4.1683083653       11.5671868517    0   0   0
C                6.2417937451        0.0188099573       11.6002801854    0   0   0
C                6.3283074126        4.1569384024       11.5682471185    0   0   0
C                8.1073661941        2.1998300366       15.8579267631
C                8.3524310756        6.3081312144       15.8850199206
C                4.1681798548        2.0734090960       15.7700365076
C                4.2034397792        6.4212959931       15.8829217203
C                0.0147673152        2.1438801594       11.5939557114    0   0   0
C                0.0200697416        6.2277703895       11.5821679336    0   0   0
C                4.2182428542        2.0594943016       11.6100232202    0   0   0
C                4.2117703951        6.2583221129       11.5919858628    0   0   0
C                2.1713130363        2.0860319016        9.4919958919    0   0   0
C                2.1164500536        6.2753611976        9.5156635851    0   0   0
C                6.2203151227        2.0809934926        9.4961719556    0   0   0
C                6.2861737462        6.2618311600        9.5257047400    0   0   0
C                2.1349207790        2.0551228178       13.6855329086    0   0   0
C                2.1043015435        6.2915359703       13.6724452320    0   0   0
C                6.2612712230        2.0678980813       13.6766563617    0   0   0
C                6.2981398968        6.2588382292       13.6653030130    0   0   0
C                2.1662877636        6.0933124543       17.9999144566
O                2.1925247824        5.9478695898       19.1327487224
O                8.3556172158        0.1036423896       17.9940467580
H                7.6713667604        0.4692353542       18.5737149858
End final coordinates



     Writing all to output data dir ./tmp/hec3_CrTiV_f100_COOH_ads.save/ :
     XML data file, charge density, pseudopotentials, collected wavefunctions
 
     init_run     :      9.46s CPU     11.26s WALL (       1 calls)
     electrons    :   8040.79s CPU   8713.37s WALL (      23 calls)
     update_pot   :     63.90s CPU     71.31s WALL (      22 calls)
     forces       :     98.01s CPU     98.83s WALL (      23 calls)

     Called by init_run:
     wfcinit      :      3.31s CPU      3.41s WALL (       1 calls)
     potinit      :      4.02s CPU      4.68s WALL (       1 calls)
     hinit0       :      0.63s CPU      0.84s WALL (       1 calls)

     Called by electrons:
     c_bands      :   2956.12s CPU   3182.71s WALL (    1120 calls)
     sum_band     :    678.88s CPU    715.37s WALL (    1120 calls)
     v_of_rho     :     61.43s CPU     84.88s WALL (    1140 calls)
     newd         :   1363.35s CPU   1379.21s WALL (    1140 calls)
                                     1379.14s GPU  (    1140 calls)
     PAW_pot      :   2993.16s CPU   3344.12s WALL (    1162 calls)
     mix_rho      :     53.90s CPU     58.25s WALL (    1120 calls)

     Called by c_bands:
     init_us_2    :     20.14s CPU     22.55s WALL (    2263 calls)
     regterg      :   2910.11s CPU   3132.34s WALL (    1120 calls)

     Called by *egterg:
     rdiaghg      :   1078.48s CPU   1288.86s WALL (    4252 calls)
                                     1288.71s GPU  (    4252 calls)
     h_psi        :    958.42s CPU    965.85s WALL (    4278 calls)
                                      965.73s GPU  (    4278 calls)
     s_psi        :      5.13s CPU      6.14s WALL (    4278 calls)
     g_psi        :      0.09s CPU      4.43s WALL (    3157 calls)
                                        4.29s GPU  (    3157 calls)

     Called by h_psi:
     h_psi:calbec :      0.78s CPU    311.59s WALL (    4278 calls)
                                      311.36s GPU  (    4278 calls)
     vloc_psi     :    426.05s CPU    431.67s WALL (    4278 calls)
                                      431.55s GPU  (    4278 calls)
     add_vuspsi   :      3.66s CPU    218.55s WALL (    4278 calls)
                                      218.26s GPU  (    4278 calls)

     General routines
     calbec       :     12.79s CPU     12.84s WALL (    5512 calls)
     fft          :     37.71s CPU     57.19s WALL (   12726 calls)
                                       19.31s GPU  (   11586 calls)
     ffts         :     10.23s CPU     10.78s WALL (    2260 calls)
                                        0.56s GPU  (    1120 calls)
     fftw         :      6.79s CPU    452.16s WALL (  244634 calls)
                                      444.26s GPU  (  244634 calls)
     interpolate  :     57.25s CPU     86.85s WALL (    1140 calls)
 
     Parallel routines
 
     PWSCF        :      2h18m CPU      2h30m WALL

 
   This run was terminated on:  18:14:18  21Jul2026            

=------------------------------------------------------------------------------=
   JOB DONE.
=------------------------------------------------------------------------------=
Warning: ieee_invalid is signaling
Warning: ieee_divide_by_zero is signaling
Warning: ieee_inexact is signaling
FORTRAN STOP
